@relation cloud_risk

@attribute RC NUMERIC
@attribute IP NUMERIC
@attribute IAS NUMERIC
@attribute DS NUMERIC
@attribute TPM NUMERIC
@attribute RE NUMERIC
@attribute DB NUMERIC
@attribute DI NUMERIC
@attribute DT NUMERIC
@attribute DL NUMERIC
@attribute DLIS NUMERIC
@attribute SLA NUMERIC
@attribute AAC NUMERIC
@attribute IDD NUMERIC
@attribute BCSA NUMERIC
@attribute R NUMERIC
@attribute ShE NUMERIC
@attribute VV NUMERIC
@attribute risk_label {low,medium,high,very_high}

@data
0.374540,0.058551,0.502427,0.842945,1.227692,1.561465,1.972361,0.307490,0.019469,0.437224,2.172229,0.573106,0.748440,2.891423,1.789656,2.566422,2.379512,1.871277,medium
0.950714,0.334238,0.731486,0.445887,0.175435,0.430010,1.642247,0.266453,2.969169,0.689969,1.499951,1.897601,0.996710,2.891087,2.329962,2.653841,1.462070,1.116143,high
0.731994,0.784897,0.958118,0.708584,0.783074,1.431271,0.869960,0.408530,1.091817,1.854272,1.711712,1.656557,2.897655,1.615006,1.610978,2.727939,2.939151,2.764803,very_high
0.598658,0.707681,0.220446,0.731873,1.426643,1.600109,1.454585,1.533423,2.544284,0.202272,2.138717,1.757281,0.721876,2.619976,1.534065,2.139142,2.320352,1.633988,high
0.156019,0.788615,0.886182,0.173964,1.318846,0.692214,0.539123,0.590754,1.604900,1.394171,2.332725,0.907366,2.704936,2.187888,2.627477,2.733892,1.394392,2.284921,very_high
0.155995,0.517269,0.934304,0.361216,1.249401,0.345218,0.200339,0.042778,0.391318,1.828385,0.814550,1.919531,1.741595,2.950969,2.960757,2.020060,2.500980,2.214867,high
0.058084,0.440199,0.916421,0.637302,0.565082,0.005264,0.704862,1.888349,2.392697,1.265575,0.440381,2.488478,0.369889,1.955227,2.547607,2.214120,1.347428,2.168974,medium
0.866176,0.147453,0.635414,0.070697,0.756050,0.901807,0.805946,0.339427,2.129481,0.057379,0.875384,2.994214,1.401937,2.549414,2.047353,2.517440,1.126770,2.051424,medium
0.601115,0.328193,0.629821,0.361540,0.205892,0.704865,0.033074,0.019116,1.582308,2.956558,1.522615,2.515333,2.845646,2.536274,1.885022,1.850871,2.055107,1.362880,high
0.708073,0.434019,0.403211,0.534799,1.438046,1.109820,1.629584,0.474263,1.543659,1.101347,1.026424,1.672496,1.255697,1.994866,2.079295,1.147163,2.107048,1.561211,low
0.020584,0.088600,0.752398,0.996224,1.007778,0.376082,0.718387,0.470058,0.262439,2.335732,1.705088,0.580289,2.590160,2.591260,1.925679,1.700333,1.377931,2.048376,medium
0.969910,0.220612,0.531294,0.474534,1.417531,1.719331,1.160836,0.844011,1.967547,0.976939,0.160397,2.044338,0.769286,1.522081,2.005776,2.247888,1.696758,2.578685,medium
0.832443,0.598225,0.677438,0.816057,0.497887,0.515510,0.147926,1.840780,2.733735,1.425050,1.529251,2.812961,1.712766,1.244506,1.406906,1.384665,2.891539,1.863978,high
0.212339,0.735663,0.428458,0.432067,0.648876,0.452859,0.349994,1.758370,0.279735,1.165391,1.103955,0.635600,2.531556,1.850327,2.807484,1.296771,1.570006,1.407845,low
0.181825,0.998348,0.731496,0.796391,0.668431,0.961428,1.779387,0.913789,0.790534,1.027618,1.604000,0.767987,2.762065,2.887261,2.509070,1.586161,1.311136,1.175889,medium
0.183405,0.933113,0.824472,0.595415,0.051485,0.997702,1.217375,0.821800,2.706924,0.065554,1.267600,0.447026,1.457470,2.001489,2.361955,1.064223,2.985124,2.326022,medium
0.304242,0.642565,0.146436,0.886595,0.682096,0.430170,1.900568,1.110018,0.853032,1.080063,0.852678,2.210165,1.919064,2.270518,2.899850,2.486846,1.604611,1.846680,high
0.524756,0.421248,0.832930,0.410943,1.606609,0.543721,1.997500,0.486908,1.961831,2.668470,2.712324,1.219685,0.008940,2.248325,1.568789,1.517431,2.360507,1.250742,high
0.431945,0.636177,0.540297,0.604304,1.794597,0.339410,0.743720,0.104370,1.604454,2.071180,0.554295,0.188087,0.759670,1.265146,1.162319,1.248477,1.463120,2.348934,low
0.291229,0.785652,0.844666,0.630019,1.036437,1.436920,0.597606,1.878448,1.788983,0.436269,2.044097,2.624850,0.836136,1.780594,2.652277,2.398259,2.100242,1.415157,high
0.611853,0.118336,0.431302,0.417383,0.911003,1.540178,1.716712,0.373398,1.247367,1.773465,2.773934,1.673016,0.280479,2.413878,2.996834,2.685856,1.772564,2.018032,very_high
0.139494,0.409905,0.379040,0.144312,0.061649,0.924657,1.997223,0.396801,0.899974,2.676693,1.616010,0.993283,0.839085,2.943980,2.156865,1.039751,2.923159,1.612376,medium
0.292145,0.839802,0.915061,0.093559,1.758409,1.428174,1.259282,0.944921,0.145600,2.100102,2.629225,1.031949,0.963366,1.336035,1.117619,1.467200,1.865612,2.863380,medium
0.366362,0.383833,0.251169,0.016672,0.026020,1.471871,1.590281,0.983227,2.232843,0.446053,0.374554,0.870754,2.906298,1.820884,2.560936,2.890465,2.168348,1.456576,high
0.456070,0.571872,0.844212,0.873534,1.889500,0.276551,1.563492,0.036868,2.238280,2.603497,1.481366,1.366441,2.005807,1.190188,1.147498,1.770508,2.889533,1.839837,high
0.785176,0.587769,0.484021,0.236475,0.978432,1.932356,0.710679,0.295909,2.012177,0.904632,1.371076,1.011125,1.278015,1.484753,2.080028,2.877184,2.978469,2.918987,very_high
0.199674,0.184476,0.514095,0.211507,0.683869,1.642064,1.148541,0.756310,1.930901,1.362228,0.024356,1.643839,2.964163,1.753519,1.555065,1.548425,1.203317,1.637450,low
0.514234,0.362235,0.308468,0.736035,1.848437,0.408967,1.666114,1.367461,0.731151,1.578428,1.329772,2.320552,0.459697,2.081286,2.830054,1.436135,2.668641,2.289186,high
0.592415,0.334511,0.573042,0.320016,0.048782,0.372330,1.376228,0.456837,0.067035,2.551520,1.107089,2.023384,1.428154,1.461134,1.902662,1.428217,1.764233,1.633454,low
0.046450,0.026197,0.325211,0.506045,1.162850,0.251322,0.042328,0.846029,2.426146,2.794822,2.009396,0.883371,1.941187,1.455125,2.796927,1.170457,2.189657,1.221350,medium
0.607545,0.024192,0.039269,0.162511,1.097865,0.276757,0.673411,1.114690,1.473416,2.788959,2.814989,1.586223,0.166742,2.555660,1.598162,2.792865,1.750096,2.255094,high
0.170524,0.831697,0.271999,0.959746,0.438641,1.496324,0.288951,1.777185,0.920514,0.023863,0.257373,2.520378,2.150997,2.925283,1.774725,2.959670,1.802232,2.832063,high
0.065052,0.273071,0.006379,0.851581,0.857775,0.939309,0.465944,0.652141,0.305796,2.765665,0.982429,0.204619,0.299602,1.647226,2.894238,2.909018,1.317715,1.905129,low
0.948886,0.518079,0.978355,0.863790,1.304528,1.565868,1.810979,0.267117,0.188165,0.163161,1.332194,0.234892,0.420847,2.375984,1.402629,2.704056,2.145533,2.252353,low
0.965632,0.298726,0.965747,0.406774,1.454262,1.492510,0.073787,0.978544,1.046600,0.797321,1.365556,1.668510,0.479069,1.516161,2.157002,2.693776,2.093432,2.217797,medium
0.808397,0.940679,0.395155,0.762361,0.001434,1.209225,0.439601,1.493443,2.414211,1.544964,2.324429,1.917345,2.786669,2.855905,1.777021,2.322171,1.378712,1.830179,very_high
0.304614,0.259297,0.728371,0.143876,1.873707,1.372733,0.619139,0.219720,2.756171,1.439777,1.330187,0.634239,2.049707,2.345805,2.548334,2.652427,2.083461,2.229793,very_high
0.097672,0.429657,0.345806,0.008619,0.329051,0.036711,1.233768,0.849367,2.690254,1.814129,0.081484,2.235660,1.966283,2.605354,1.258593,1.416685,2.946204,1.518636,medium
0.684233,0.872730,0.671093,0.019973,0.467161,0.623555,1.068203,0.035570,2.760003,1.438339,2.130312,1.938790,1.666480,1.098708,1.874430,1.775825,2.428817,1.756076,medium
0.440152,0.841934,0.805430,0.586602,0.526947,1.275644,0.436539,0.067118,2.723176,2.803127,2.654489,2.769868,0.878418,2.197012,2.397865,2.281673,1.961965,1.884638,very_high
0.122038,0.186101,0.946756,0.455395,0.075640,0.018690,0.328482,0.965907,1.581674,0.721647,1.541714,0.506863,1.862669,2.055225,1.814032,2.749543,2.832168,2.728017,medium
0.495177,0.802643,0.400212,0.518015,0.246104,0.065954,0.473596,0.596395,0.658247,0.822074,1.743326,2.254123,1.230449,1.585994,1.117063,2.320939,2.150629,1.696666,low
0.034389,0.458187,0.783298,0.007463,1.972700,1.703776,1.005059,1.690215,2.394140,2.762214,0.488809,0.250929,0.436248,1.524860,2.410225,2.678044,1.270096,2.270274,high
0.909320,0.482969,0.265928,0.422687,0.630433,1.368050,0.542356,1.204309,0.641139,0.230219,0.661938,1.695877,2.068792,2.160050,2.006397,1.947899,2.095019,1.426808,low
0.258780,0.133480,0.990332,0.718068,0.230602,0.530739,1.895205,0.907866,0.801622,1.828682,0.705511,1.655685,0.388747,2.412971,1.022617,2.434607,1.361946,1.505139,low
0.662522,0.080602,0.025770,0.442694,0.213983,1.375926,0.927730,0.815871,0.699763,2.045208,1.292226,1.165155,0.572006,1.066346,2.225312,2.959962,2.535010,2.296858,medium
0.311711,0.727939,0.603529,0.732219,1.438920,1.584913,0.117592,0.994491,1.544947,1.516625,2.784436,2.533713,2.453098,2.134803,2.839762,1.306977,2.934348,2.524620,very_high
0.520068,0.496461,0.659506,0.233019,1.709137,0.613589,1.458533,0.080878,0.965483,2.082696,1.565354,0.013112,1.980351,1.340919,1.222052,2.853841,1.721637,1.924234,low
0.546710,0.436851,0.688046,0.813142,0.513905,0.072075,0.657691,1.785587,0.462468,0.518264,0.576293,1.560538,1.892973,1.280725,2.181342,2.044728,1.869836,1.670199,low
0.184854,0.729508,0.120388,0.588431,0.041819,1.865558,1.306978,1.996606,1.359520,2.557897,0.798263,0.651461,1.254608,2.246239,2.457338,2.286436,1.842993,2.820543,very_high
0.969585,0.765513,0.938530,0.210763,0.446180,0.690360,0.559189,0.362974,2.621722,0.420077,1.152045,2.230496,1.188842,1.621740,1.141547,2.755738,1.570600,1.271616,low
0.775133,0.158908,0.181183,0.236720,0.113031,0.212964,1.141487,0.240766,1.711659,1.202437,1.869777,0.129202,2.070788,1.881760,1.045231,1.819308,2.588360,2.441428,low
0.939499,0.610225,0.622753,0.628030,0.206790,0.983714,1.544305,0.287155,2.635007,0.225773,1.320099,2.494664,2.220017,1.719998,1.928392,1.837385,2.235457,2.380341,high
0.894827,0.135354,0.222676,0.829940,0.863016,1.536936,1.856017,1.322054,0.587617,1.635633,1.177335,2.514277,1.530640,2.296673,2.582373,2.054364,1.128103,2.380490,high
0.597900,0.751375,0.307216,0.415628,0.459837,0.443295,0.522254,1.322882,0.500922,2.009237,1.694186,2.498598,2.907808,1.940240,1.321439,1.038204,2.677613,2.870841,high
0.921874,0.656955,0.546459,0.258300,1.031892,0.538980,0.669714,1.695848,1.726731,2.823665,0.725505,0.457706,2.867099,2.926917,2.673275,1.993332,1.374176,2.456381,very_high
0.088493,0.956615,0.417193,0.867012,0.506988,0.485430,0.928533,1.503653,1.389987,2.218009,0.236710,1.891220,1.237288,1.704766,2.313155,1.582175,2.958302,1.603130,medium
0.195983,0.068958,0.160226,0.669268,1.881075,1.983346,1.854350,0.899379,1.980518,1.623309,0.073243,0.043102,2.461867,2.480569,1.664347,2.855908,1.753326,1.706818,high
0.045227,0.057055,0.170936,0.448085,1.811888,0.394807,1.802774,1.225711,2.383880,2.797851,0.753777,2.543888,1.629804,1.514585,2.031652,1.175471,2.232899,1.782222,high
0.325330,0.282187,0.418145,0.487900,1.133612,1.151040,0.179757,1.376569,2.253922,1.435311,0.274776,2.168926,1.535268,2.017506,2.931150,1.918641,1.155647,1.061617,medium
0.388677,0.261706,0.757283,0.204256,0.708848,1.850529,0.263860,1.025473,2.826784,1.683617,1.009022,1.593461,0.164892,2.105140,1.432874,2.894936,1.689327,2.827021,high
0.271349,0.246979,0.897965,0.626803,0.762294,0.293793,0.991018,0.951302,1.194769,1.788296,2.318801,2.191774,1.721924,1.658219,1.999071,2.802071,2.604708,1.147105,high
0.828738,0.906255,0.084128,0.358743,0.823705,1.941708,0.213239,1.290195,0.619160,1.229939,2.148883,0.282972,2.701734,1.943561,2.248973,2.402697,1.954417,2.399589,high
0.356753,0.249546,0.393104,0.995645,1.455159,1.894954,0.691162,1.114949,1.652738,2.515448,1.832783,1.585967,2.340402,1.558557,1.276029,2.178722,2.809207,2.460322,very_high
0.280935,0.271950,0.100246,0.480184,0.903278,1.769144,0.296771,1.287885,0.332229,0.555528,2.557501,0.873829,2.358951,1.012002,1.087044,1.561462,2.150277,2.687430,low
0.542696,0.759398,0.016592,0.485886,1.713460,0.429113,1.272081,1.225710,0.866553,1.664527,0.846203,2.917858,0.479787,1.431297,1.026920,1.733914,2.857144,2.106725,medium
0.140924,0.449740,0.661719,0.565852,1.888190,1.268110,1.898991,1.438393,0.623664,2.166700,2.655161,2.571354,1.075348,2.400128,1.649386,1.180270,2.965220,2.450529,very_high
0.802197,0.776711,0.602449,0.916756,0.671892,1.521783,1.993468,1.285607,1.189691,2.711929,1.197718,2.199827,0.699615,2.541926,1.147895,2.572217,1.907789,1.605446,high
0.074551,0.065366,0.163019,0.800818,1.121389,1.972056,0.750482,1.039485,0.333650,2.651755,1.202680,2.801243,0.947746,1.560406,2.607540,1.647740,2.130313,2.491168,high
0.986887,0.487571,0.233813,0.451130,0.190113,0.360848,1.198025,1.363594,0.095525,1.526221,1.216055,1.040530,1.738618,1.816086,2.994639,2.335564,2.669841,1.686831,medium
0.772245,0.033614,0.023708,0.718699,0.400938,1.532052,1.712535,0.898964,1.970382,1.929484,0.294283,2.702640,1.094351,1.074731,1.122608,1.715190,1.443066,2.805677,medium
0.198716,0.062653,0.834947,0.586235,0.826932,0.677602,0.234924,0.483342,1.830747,1.182713,2.926471,0.975715,1.682093,1.474126,1.865453,1.928661,2.723259,1.326764,medium
0.005522,0.906437,0.974691,0.492367,0.412405,0.351253,1.379129,0.002836,2.125077,1.404533,0.415520,2.198390,1.315504,2.558439,1.051464,2.110005,2.183840,1.631515,medium
0.815461,0.139245,0.135460,0.192316,1.753121,0.842754,0.817687,1.119928,1.981159,2.718797,1.022657,2.209251,0.859847,2.211973,1.267982,2.603705,2.451000,1.997539,very_high
0.706857,0.532421,0.231475,0.463936,0.316573,1.587672,0.412292,1.181310,0.342884,2.792112,0.957901,0.055050,0.286210,1.411541,1.645845,1.422313,1.159708,2.551701,low
0.729007,0.411096,0.868410,0.245819,0.911322,0.929700,0.805507,1.944098,0.873237,2.686242,0.224038,1.083179,2.675515,1.514884,1.787396,1.797531,2.532375,2.497598,high
0.771270,0.347343,0.926464,0.914842,1.211398,1.075046,0.151921,0.722957,0.388580,0.415113,0.456780,0.058298,0.034120,2.633604,2.879566,1.260163,1.621574,1.421434,low
0.074045,0.899833,0.419627,0.335407,1.383728,1.990319,1.390814,0.788266,2.528917,2.550252,0.134575,2.991276,0.004957,1.418168,1.791674,1.151521,2.610465,1.288471,medium
0.358466,0.021823,0.050622,0.952264,0.766139,0.798219,0.505485,0.403599,2.240711,2.845091,0.877213,0.366590,2.480393,1.668315,1.992555,2.209349,2.018305,1.607939,medium
0.115869,0.663790,0.039392,0.533055,1.738198,1.230802,0.622811,0.141069,0.604581,1.083749,2.599971,1.628433,2.990433,2.328717,1.491167,1.378182,1.549229,1.967508,medium
0.863103,0.963394,0.573950,0.631544,1.136638,0.730488,0.242163,1.545609,1.023928,1.555939,1.018327,2.371669,2.181308,2.122225,1.000250,1.119599,2.905519,2.078010,medium
0.623298,0.560168,0.392895,0.542940,0.879016,0.785571,1.729318,0.499362,2.899845,2.337286,0.371075,0.603791,0.045822,1.921740,2.798669,2.794196,2.530125,1.858275,high
0.330898,0.936822,0.028652,0.129381,0.134481,1.391282,0.986889,1.217810,1.782478,1.686234,1.937082,1.455158,0.680071,2.799482,1.163430,2.068629,2.971372,2.326180,high
0.063558,0.052258,0.583252,0.375821,0.929379,1.875774,1.144294,1.375546,2.403467,2.980451,2.989803,1.822286,2.915468,1.439421,2.928498,1.269256,1.728940,1.855118,very_high
0.310982,0.418793,0.011303,0.099146,1.641472,1.084718,1.138865,0.942473,0.793773,1.367140,0.696971,0.480614,2.425813,2.482840,1.261688,1.106852,2.298439,2.892658,medium
0.325183,0.260158,0.787372,0.622954,1.229082,1.536800,0.820986,1.752704,0.630159,2.141828,0.838713,2.335666,1.700400,1.318128,2.209757,1.239720,2.223177,1.521938,medium
0.729606,0.730821,0.306433,0.446874,1.664325,0.178413,0.385060,0.887590,2.351751,2.377773,2.915541,0.898009,0.710582,2.231468,2.998821,1.942674,2.375113,2.254744,very_high
0.637557,0.981297,0.040258,0.777985,0.988023,0.422316,1.490265,0.569817,2.057617,1.482301,0.536329,0.633069,0.043111,2.741247,1.276929,2.336931,1.076633,2.222756,low
0.887213,0.256530,0.588352,0.220470,0.236923,1.004263,0.254113,1.792031,2.042934,2.570951,1.533642,1.674866,0.062584,1.915804,1.847886,2.282560,1.583439,1.563149,medium
0.472215,0.654175,0.397684,0.164566,0.027280,0.040023,0.207748,1.723129,1.657904,1.638464,0.718956,1.230941,1.835943,2.448589,2.560847,1.288846,2.818675,1.823375,medium
0.119594,0.198098,0.973800,0.406332,0.606439,0.505710,1.420290,0.328080,1.690735,1.234952,2.797056,2.760858,0.065496,2.640787,1.064380,2.266978,1.847640,1.730947,medium
0.713245,0.565330,0.544199,0.926585,1.395981,1.034803,0.417674,0.051922,2.207093,0.323471,2.944563,2.640188,2.980890,1.272053,2.379566,1.809731,2.921287,1.344998,very_high
0.760785,0.463932,0.275239,0.710422,1.580520,0.029922,0.613546,0.179971,0.810007,1.180241,2.444094,1.450052,0.550152,2.411654,1.160747,1.929488,1.427006,1.954590,low
0.561277,0.972005,0.709439,0.418924,0.591506,0.529093,0.950455,0.573095,1.058305,2.201809,0.944351,1.077791,2.132122,2.839682,1.473040,2.602861,2.994848,1.773325,high
0.770967,0.608527,0.271492,0.517272,0.991308,1.028062,0.898703,1.944520,2.614910,2.763859,1.210462,0.976554,0.465179,2.152741,1.320152,1.664999,2.395162,1.356635,medium
0.493796,0.349506,0.904243,0.084213,0.842238,1.146298,1.417158,1.117032,0.926596,0.755038,0.726917,0.802691,1.620280,1.372244,2.814673,1.293998,2.552787,1.899760,low
0.522733,0.114096,0.374722,0.984576,0.821046,1.851503,1.246864,0.746523,1.638929,1.065707,2.672274,1.633644,0.241834,1.253885,1.360913,2.746906,1.793722,1.843688,medium
0.427541,0.151247,0.549869,0.666407,0.462697,1.290691,1.288792,1.777432,2.107918,0.461883,2.743675,2.414936,2.300335,1.519471,1.080868,1.424261,2.814016,1.262731,high
0.025419,0.225317,0.050573,0.285404,0.272742,0.829472,1.428109,0.906273,2.999774,2.072169,1.256612,0.932270,1.754763,1.207027,2.175251,1.588060,2.090926,1.262375,medium
0.107891,0.250967,0.426121,0.585808,0.393377,1.860702,0.585225,0.630477,1.305874,2.880565,1.969599,0.570282,0.258500,2.026788,1.692362,2.413180,2.361877,2.295015,medium
0.031429,0.850616,0.832364,0.109482,0.110665,1.569766,0.644667,1.882439,1.284279,1.922857,0.496660,1.426451,2.545759,1.139409,1.811412,2.367101,1.189617,2.413162,medium
0.636410,0.561223,0.805649,0.965837,0.396261,0.400018,0.875995,1.699035,2.527765,1.851230,1.304808,0.207103,1.641056,1.446809,1.238125,2.600800,2.263361,2.882361,high
0.314356,0.523391,0.224319,0.174785,0.018402,0.261685,0.614924,1.687337,2.416509,1.660470,1.894497,2.103837,2.764777,1.879821,2.496469,1.367733,2.758158,1.174009,high
0.508571,0.114769,0.226079,0.648030,1.254517,1.351623,1.969876,1.024569,2.193228,0.265367,1.156209,1.555075,2.749870,1.947830,2.203107,1.704560,1.356566,1.235723,medium
0.907566,0.860140,0.817305,0.245454,0.632751,1.119766,1.628104,1.578877,1.389689,2.188511,1.072799,1.489124,2.761523,2.130797,1.728434,1.251766,2.475452,1.103636,high
0.249292,0.722814,0.930398,0.717561,1.946289,1.579347,0.329309,0.358707,0.971817,1.806149,0.002997,0.901336,0.233356,2.411230,1.343150,2.082078,1.050802,2.064457,low
0.410383,0.067668,0.095361,0.776821,0.387434,1.477610,0.011188,1.146446,1.826191,1.984430,2.412880,2.714020,0.362873,1.094457,2.186903,1.585141,2.852406,2.245493,high
0.755551,0.707835,0.450059,0.673420,0.691657,1.250423,0.085567,1.967692,2.628670,2.696433,2.668013,0.271459,2.963117,1.161242,2.557195,2.377871,2.965834,1.807047,very_high
0.228798,0.543538,0.337454,0.614499,0.715682,1.972764,0.488127,0.581917,2.651332,2.351882,2.908391,2.609472,1.462802,1.121718,1.624795,1.000689,1.708360,2.595804,high
0.076980,0.081725,0.870688,0.892469,0.016903,1.067179,0.228583,1.588705,0.325495,2.342746,2.157814,1.130116,0.714642,1.846301,1.051721,1.119366,1.214148,2.373399,low
0.289751,0.458301,0.083525,0.078627,1.678416,0.226212,1.066676,0.980957,1.285051,2.781551,1.646377,2.641871,2.308993,1.083696,1.428688,1.865121,2.317153,2.971681,very_high
0.161221,0.484696,0.211126,0.330915,0.063989,1.656547,1.715990,0.079611,1.394166,2.969805,0.807854,2.186284,0.792856,2.492163,2.364796,2.916368,1.059669,1.275790,high
0.929698,0.165775,0.752468,0.248287,1.880360,0.503707,1.473500,1.526039,2.932846,1.743848,2.997898,0.312512,2.181647,1.446000,2.978193,2.781703,1.964973,1.116631,very_high
0.808120,0.945698,0.051294,0.988014,1.784149,1.554604,0.431218,0.337138,2.033994,0.326645,1.769259,2.494609,2.511857,2.878425,1.026752,2.988018,1.543558,1.549607,high
0.633404,0.849975,0.492535,0.389390,1.071044,1.914214,0.798599,1.262947,1.221739,1.377390,2.043462,2.046531,2.352790,1.972808,1.612307,1.833660,1.946678,1.038100,high
0.871461,0.669022,0.442107,0.732613,1.087191,1.393591,1.015788,0.171328,0.078174,2.362803,2.047218,0.096906,0.822143,1.892652,1.124042,1.093137,1.036551,2.865223,low
0.803672,0.462296,0.334401,0.684725,1.307556,1.192060,1.620412,1.893735,1.696155,0.083176,2.535755,0.401108,1.204856,2.561077,1.632699,1.611912,1.103224,1.607903,low
0.186570,0.411766,0.394572,0.212081,0.774100,0.920772,1.678243,0.583448,0.288228,0.170662,0.029018,1.906884,1.239753,2.426308,1.811829,2.351542,1.031952,2.104860,low
0.892559,0.650973,0.529941,0.238998,1.294445,0.728820,1.819437,0.452929,2.503350,0.201473,0.660741,1.987802,1.473819,2.214618,2.841724,1.270328,2.238264,1.636139,medium
0.539342,0.545432,0.161367,0.281285,0.089537,0.706010,1.018491,0.258273,2.257556,2.193107,1.996602,2.239954,0.502119,2.870293,1.161122,1.599944,2.120186,1.491617,medium
0.807440,0.062273,0.571996,0.411127,0.108095,1.272745,1.388549,1.892004,1.381527,1.503500,2.685437,2.160736,1.357410,1.844519,2.554268,1.112332,1.466316,1.304729,medium
0.896091,0.512503,0.805432,0.234325,0.914461,1.502546,0.223601,1.423807,1.287632,1.106694,2.056016,1.978560,1.532349,2.617063,1.791069,1.949934,2.293286,1.640732,high
0.318003,0.806404,0.760161,0.019651,1.099245,1.357034,1.130578,1.483322,2.692017,0.316851,1.240474,2.298717,1.595127,1.760186,2.622526,1.417841,2.768415,2.230838,very_high
0.110052,0.459240,0.153900,0.879393,1.775635,0.396820,0.497384,0.998809,0.865375,2.196721,1.084666,1.725257,2.459701,2.676691,2.026804,1.182496,1.554644,2.943242,high
0.227935,0.051957,0.149249,0.965610,0.209321,0.987974,0.863434,0.949456,0.747060,0.963059,2.213844,0.782374,1.552003,1.518949,1.078564,1.822432,2.663988,2.116184,low
0.427108,0.786278,0.268174,0.341570,1.645296,1.583280,1.268101,0.220042,2.817592,0.795972,2.223713,2.737130,0.692352,1.578534,2.892412,1.702451,2.325018,2.065418,very_high
0.818015,0.201364,0.361075,0.338507,0.420095,0.951408,0.513972,1.119682,2.427738,1.956958,1.821174,0.054642,1.989386,2.355739,1.165468,2.075035,1.067641,1.070526,low
0.860731,0.258621,0.408456,0.007092,0.788167,1.073247,0.104370,0.493833,2.461877,1.677033,0.874401,1.099685,2.391942,1.425427,2.195367,2.498077,1.750300,2.680198,high
0.006952,0.164706,0.679697,0.680251,0.633205,1.542272,0.020468,1.954291,0.585581,1.087232,2.775464,2.186611,0.958115,1.458308,2.755336,1.225137,2.015514,1.089683,low
0.510747,0.330215,0.056680,0.825440,0.800311,1.322531,0.044319,1.593162,0.429888,1.924462,1.655640,1.281468,1.935918,1.610525,1.159540,2.582251,2.463398,2.812465,high
0.417411,0.756752,0.034673,0.146608,0.300991,0.818690,0.016699,0.825984,0.078089,0.813665,2.371477,0.074503,0.440814,2.357858,2.107787,1.052580,1.574261,2.077343,low
0.222108,0.519386,0.391911,0.159666,1.007140,1.790825,0.220710,0.302683,0.711125,2.384491,0.642925,0.197943,1.025779,2.778776,2.648580,1.886204,2.965460,1.336933,medium
0.119865,0.204881,0.697164,0.790083,1.603285,0.325134,0.478977,1.570663,2.322571,0.687957,1.032122,1.945912,2.727672,2.349135,2.972649,2.174861,2.369079,1.903415,very_high
0.337615,0.877830,0.193435,0.616291,0.883068,1.991033,0.442443,0.244108,0.720115,0.476513,2.623739,2.894594,2.733924,2.655628,2.448655,2.913997,1.745627,2.989969,very_high
0.942910,0.879582,0.641504,0.044861,0.981227,0.237705,1.973593,0.378668,2.187310,2.347318,0.150321,1.655591,1.725974,2.087121,1.556669,2.147846,1.194050,1.610166,medium
0.323203,0.870578,0.259828,0.622547,1.697535,0.029900,0.612012,0.423041,0.755725,2.123676,1.536946,1.520273,2.107054,1.137846,2.399141,1.317498,1.362736,1.538920,low
0.518791,0.238796,0.886086,0.308918,1.412116,1.780038,0.254842,1.113781,1.185877,0.547917,1.445116,0.954976,2.562046,1.200932,2.411534,2.035084,1.975216,1.236012,low
0.703019,0.451239,0.895690,0.368725,0.980909,0.489907,1.091125,1.574113,2.949487,0.348737,2.253691,0.770072,2.875660,2.108784,2.399932,1.791568,1.989391,2.194285,very_high
0.363630,0.984990,0.297287,0.769731,0.515391,1.459399,1.715915,0.628630,0.734435,2.515197,0.845681,0.062955,1.469659,1.655602,2.708521,1.958711,2.535438,1.178454,medium
0.971782,0.772012,0.229994,0.810935,1.769853,1.622031,1.356121,0.169340,1.129112,2.329795,0.657200,0.818865,1.684727,1.441136,1.174760,1.394194,2.452353,2.532016,medium
0.962447,0.027167,0.411304,0.400357,1.154041,1.717973,0.592164,0.929077,0.903262,0.981772,2.778399,1.347331,1.246925,1.932514,1.216840,2.001654,1.402546,2.838447,medium
0.251782,0.065205,0.240532,0.947153,0.442295,1.983188,1.123232,1.496220,0.328875,1.974592,1.715129,0.593849,0.215946,2.332993,2.281234,1.300080,2.189913,2.863742,medium
0.497249,0.463931,0.672384,0.406463,0.538240,0.588079,1.429712,0.443328,1.469682,0.372481,0.314069,0.262044,1.268410,1.769984,2.907762,2.488086,1.041244,1.215833,low
0.300878,0.909220,0.826065,0.771836,1.606266,1.420487,1.456209,0.439849,1.136072,1.521143,0.579108,2.153184,2.371882,2.605085,1.931677,2.187813,1.797095,2.116525,very_high
0.284840,0.538702,0.673092,0.483877,0.088291,0.230800,1.333077,1.894454,2.084661,0.056191,2.996478,2.683861,2.414656,2.477046,2.921125,1.157055,2.528210,1.194220,very_high
0.036887,0.497813,0.824350,0.897532,1.984184,0.813619,1.741621,1.908307,2.452784,1.174806,0.586827,2.810316,2.677131,2.469830,2.876171,2.779229,1.799017,2.144032,very_high
0.609564,0.105474,0.396992,0.907761,0.260703,1.695943,1.740211,1.980931,1.632749,0.224528,1.831427,1.853996,0.154400,2.970379,2.805819,2.232759,2.671192,2.629961,very_high
0.502679,0.656780,0.156317,0.087417,1.592137,0.735316,1.157873,1.615319,0.096589,1.425442,1.260384,0.158324,1.581464,1.590460,2.819702,1.632214,2.952311,2.075580,medium
0.051479,0.822103,0.737951,0.936493,0.789551,1.182191,0.859713,0.376368,1.856767,1.265045,2.656797,2.222588,0.322273,2.289451,2.796638,1.091285,2.214425,2.744108,very_high
0.278646,0.380420,0.360475,0.825535,0.984432,1.007547,1.283141,0.423963,0.166172,1.333155,2.265506,0.330286,0.602227,2.710957,2.639779,2.264453,1.290008,2.603349,medium
0.908266,0.775612,0.671271,0.791311,1.761301,1.291903,1.636424,0.680450,1.849069,0.135994,1.790854,2.009244,2.700650,2.159049,2.389958,1.746881,1.759354,1.553097,high
0.239562,0.964477,0.270644,0.200911,0.825822,1.945789,0.011304,0.636265,2.055090,1.084849,0.032217,2.338098,1.490374,2.579004,1.048816,2.815236,1.018967,2.260205,medium
0.144895,0.203766,0.081230,0.805119,1.074988,0.111471,1.983994,1.913055,0.593303,2.269452,2.639386,2.177594,2.275635,1.828904,1.264507,1.069756,2.205452,1.014824,medium
0.489453,0.523330,0.992582,0.850133,0.098599,1.147923,0.365788,1.578148,2.458038,1.106743,1.334002,2.855651,0.193152,2.180983,1.268464,1.078205,2.643137,1.792084,medium
0.985650,0.287138,0.156202,0.289150,0.004695,1.726058,0.940498,1.448018,2.733255,2.145516,2.794733,2.214439,1.250480,1.111333,1.047081,2.898599,2.259880,1.475920,very_high
0.242055,0.792854,0.988421,0.952260,0.489600,0.962765,1.744059,0.371926,2.439261,1.108436,1.486617,2.079629,2.022721,2.971535,1.233404,2.929748,2.572172,2.874233,very_high
0.672136,0.577593,0.977280,0.049860,1.361166,0.157054,0.450081,1.819051,0.915328,1.269718,2.082673,0.785230,0.400219,2.600037,2.839493,1.055484,2.599808,1.810778,medium
0.761620,0.634582,0.793818,0.149909,0.242530,1.121079,0.953590,1.655741,1.759929,1.691676,0.207878,2.774306,0.977454,2.737618,2.327609,2.432066,2.702025,2.308129,very_high
0.237638,0.797914,0.659423,0.537581,0.227524,0.664148,0.265164,0.327284,2.744445,2.852046,2.235455,0.538632,0.193643,2.388589,1.624146,1.442990,1.533328,2.463963,medium
0.728216,0.395970,0.577807,0.575792,0.821921,0.309884,0.790153,1.742341,0.961994,0.326581,1.013988,2.714690,1.954020,1.372100,2.586720,2.402786,2.742537,2.546425,high
0.367783,0.915090,0.866102,0.645150,1.295674,1.698069,0.354271,0.544495,2.460083,0.098741,1.054077,0.937988,2.912674,1.062057,1.976739,2.737466,2.308188,2.471550,high
0.632306,0.533029,0.289440,0.016969,1.424144,1.043199,0.727255,0.161739,0.028425,1.823872,0.355968,0.390491,2.481136,2.729313,1.284254,1.201663,1.579451,1.578330,low
0.633530,0.157955,0.467681,0.960367,0.356901,1.866553,0.746928,1.313645,0.010940,2.847291,0.440571,2.480049,2.923869,1.792661,2.769004,1.477533,2.974589,2.372135,very_high
0.535775,0.695899,0.619390,0.044588,0.159176,1.612033,1.986342,1.307609,2.279135,2.969169,0.557277,0.007486,2.536814,1.527730,1.677324,1.048155,2.900365,2.098019,high
0.090290,0.793261,0.411190,0.143062,1.880794,1.385944,1.989626,0.189864,2.284343,1.452493,0.984619,2.496265,2.565587,2.123346,2.397718,1.087660,2.148882,2.194745,very_high
0.835302,0.316762,0.427486,0.014015,0.521333,0.010051,0.229573,0.637704,2.366932,1.404245,2.675910,0.786936,1.731532,1.841797,1.581188,1.059236,2.686417,1.001629,low
0.320780,0.857179,0.330285,0.566858,1.706693,0.855647,1.451938,1.985629,2.790081,1.934891,1.104781,2.654164,1.554757,2.303332,2.000143,2.601365,1.522989,1.516515,very_high
0.186519,0.906143,0.564232,0.932267,1.726983,0.394973,0.103491,1.356853,0.353719,1.666904,2.173088,2.074438,1.218763,1.967586,2.632505,1.596585,1.832074,2.861367,high
0.040775,0.276904,0.850575,0.665947,1.545045,1.821596,0.060384,1.460150,0.695955,1.902264,0.248243,1.998550,2.454285,2.394466,1.313555,1.986423,1.367944,1.580152,medium
0.590893,0.983521,0.201528,0.822657,0.337667,0.349168,0.210668,0.425835,2.711175,2.621998,1.773296,1.095959,0.546203,2.706847,2.954503,2.575689,2.040205,1.876031,very_high
0.677564,0.140712,0.934433,0.013281,1.643603,0.572120,1.930971,0.157564,0.531709,2.238919,1.445674,0.178209,0.168675,1.391114,1.140432,1.989887,1.992003,1.373348,low
0.016588,0.202016,0.689088,0.542015,1.538501,1.033674,1.881727,0.553803,2.046688,1.490632,2.933874,2.490219,2.843681,1.658866,2.068018,1.858392,1.425626,1.277205,very_high
0.512093,0.184225,0.823273,0.459563,1.193446,0.526727,0.387856,0.497797,1.591389,1.385593,2.538623,0.512711,0.011335,1.873631,2.832051,1.023146,2.345603,1.417338,low
0.226496,0.893990,0.556191,0.498968,0.674404,0.419729,0.323345,0.469088,0.249581,1.918805,1.364489,1.116776,2.930488,2.924117,2.891388,2.136079,1.235581,2.107295,high
0.645173,0.654293,0.779517,0.072213,0.525017,1.198199,0.481070,0.385509,0.855791,1.367119,2.325428,1.801064,2.186560,1.730667,1.464218,1.249486,1.123383,2.838057,low
0.174366,0.152104,0.016200,0.684435,0.243778,0.177859,1.031094,1.149511,1.561117,1.373338,0.579116,1.446761,0.985497,1.762200,1.287970,2.529296,1.769810,1.652398,low
0.690938,0.440323,0.818380,0.503220,1.019514,0.116336,1.139409,0.656207,2.557050,0.048918,1.687009,0.595982,2.093460,2.306945,2.448806,1.515475,1.819650,1.646816,medium
0.386735,0.615298,0.040139,0.765149,1.170522,0.744491,0.443187,1.640690,2.122615,0.522192,0.223857,0.421849,2.453625,1.838399,1.083947,2.348375,1.639481,2.128281,low
0.936730,0.083464,0.889913,0.485291,0.718678,1.441329,1.513246,0.367895,1.865649,1.465541,1.044267,0.369739,0.736086,2.902447,1.970478,2.292447,1.515893,1.713485,medium
0.137521,0.882416,0.991963,0.149382,0.950718,1.109614,0.619106,0.929254,1.488099,2.467960,0.677587,2.589024,2.312687,2.788938,2.592710,2.233351,1.677553,2.820832,very_high
0.341066,0.803604,0.294067,0.648257,0.727029,0.845753,1.844263,0.027316,0.896052,0.836181,2.156729,0.094679,2.413109,2.026818,2.120509,1.533904,1.326751,1.755696,low
0.113474,0.505207,0.210319,0.172386,1.282012,1.131503,1.313445,0.963365,0.357735,1.567930,1.470272,2.931043,0.748064,2.289550,1.376027,1.534180,1.806905,1.980885,medium
0.924694,0.967127,0.765363,0.872395,1.802518,0.730903,0.872702,0.111676,1.227228,1.034886,2.253211,0.595586,0.125779,1.116061,1.974089,2.726096,2.809207,2.066779,medium
0.877339,0.417761,0.253026,0.613116,0.327841,1.872293,1.579824,1.955447,0.085555,0.314412,1.545886,0.330967,0.612367,2.391461,2.842549,1.025615,1.448854,2.564136,low
0.257942,0.984110,0.865562,0.157204,0.762818,0.109810,1.635829,1.581184,0.633168,2.874895,0.259453,1.730915,0.601939,2.414402,2.234426,1.363045,2.368902,2.127812,medium
0.659984,0.667920,0.102843,0.962338,0.281737,1.346783,0.580963,0.980223,1.297450,2.564022,2.206103,0.239958,0.195721,1.718399,2.442981,2.220342,1.283569,1.478310,low
0.817222,0.634671,0.125955,0.518365,1.249888,1.782565,0.679429,0.173175,1.255816,0.235477,2.499688,1.807360,2.178022,1.439366,1.672528,2.634093,1.707813,1.247974,medium
0.555201,0.165955,0.979152,0.072898,1.457741,1.607769,1.871910,1.184891,0.132886,2.159362,2.710594,2.551880,1.139925,2.830157,1.376968,1.716691,1.642350,2.875549,very_high
0.529651,0.881928,0.673839,0.626833,1.863825,0.368082,0.329482,1.517528,1.767180,1.042740,1.715976,0.143694,2.653159,1.853410,1.511284,2.306887,2.874059,2.603126,high
0.241852,0.427490,0.846887,0.253199,0.557744,0.591853,0.084301,0.381435,1.649053,2.984549,2.260756,2.399606,0.756513,2.307412,2.066355,2.114313,1.855964,1.045930,medium
0.093103,0.162233,0.324329,0.803693,1.900422,1.434096,0.908111,1.136417,0.234313,0.907196,2.256133,1.183432,1.359696,1.066658,1.560440,1.129080,2.380932,2.643058,low
0.897216,0.012608,0.676484,0.817822,0.126525,0.168541,1.602420,1.628422,2.829489,0.716215,0.467249,0.478472,1.917052,1.828134,2.083930,2.243500,2.204926,2.181196,medium
0.900418,0.559756,0.594242,0.978947,1.206028,1.623723,1.543336,1.536496,0.298148,1.703672,0.492662,0.528289,2.632395,2.634518,2.415584,2.627807,1.282060,2.037788,high
0.633101,0.527400,0.603150,0.501870,0.114265,1.437814,1.839061,1.605984,2.564502,2.505378,0.212657,2.756294,1.573863,1.775152,2.468792,2.984897,2.879081,1.024458,very_high
0.339030,0.719354,0.682532,0.454957,1.787548,1.459213,1.066401,1.758647,0.000929,0.577557,0.959741,0.331817,1.120574,2.206322,1.329370,1.059280,1.691739,2.561728,low
0.349210,0.890258,0.575359,0.753476,1.059618,0.200483,0.200129,1.875364,2.646843,2.128208,1.420526,2.600348,2.601045,1.419712,2.500862,2.320116,1.089517,1.396130,high
0.725956,0.079407,0.429062,0.132471,1.338697,1.435521,1.177378,0.811042,0.059159,0.184220,2.993694,1.632734,0.930739,1.833051,2.345376,1.829099,1.600887,2.455962,medium
0.897110,0.731496,0.275923,0.546916,1.663148,1.359636,1.556791,1.137538,2.273436,2.756804,1.292980,0.117169,0.238271,2.855275,1.024010,1.019576,1.671267,1.031736,low
0.887086,0.187412,0.768581,0.546248,0.300621,1.661845,0.186656,1.581319,1.085072,0.243225,2.178728,1.393428,1.335126,2.132903,1.117744,2.228722,1.185491,2.592707,low
0.779876,0.858177,0.226272,0.089473,0.077183,0.083192,0.345315,1.394280,2.214650,2.742694,2.080191,2.452349,2.355280,2.803863,2.292499,1.244855,2.239955,1.046079,very_high
0.642032,0.819064,0.692354,0.417984,1.757762,0.046221,0.024581,1.991040,1.205236,1.472422,0.613446,2.178608,0.092342,2.804039,1.767408,1.757134,1.693528,1.471786,low
0.084140,0.540794,0.233333,0.853285,0.629866,0.746014,1.187305,0.027355,0.212724,1.344273,0.175521,1.466347,1.757647,2.888296,1.292208,1.522734,2.258269,1.536556,low
0.161629,0.710243,0.625330,0.856154,0.257958,0.297577,1.773469,0.710266,2.302520,2.919921,1.638020,2.580150,1.783392,2.790783,1.088793,1.722327,1.013481,1.315017,high
0.898554,0.314350,0.747078,0.099238,0.936922,1.116769,1.341327,0.562056,0.213758,2.971153,2.100917,0.361094,2.785625,1.006562,1.318797,1.985391,2.964097,1.962116,medium
0.606429,0.471168,0.218714,0.090721,1.196612,1.834698,1.964080,0.524632,2.766361,1.950534,2.994755,2.729823,0.859394,2.868030,2.915028,1.718419,1.341033,1.567376,very_high
0.009197,0.821637,0.059943,0.262695,0.061941,0.782959,0.126067,0.445060,0.152922,0.381358,1.075833,2.539324,0.836510,1.274919,2.455131,2.105464,2.318662,2.986576,low
0.101472,0.459265,0.130974,0.874766,0.549791,1.689901,1.806002,1.418248,1.437976,1.518510,2.689094,2.124830,1.321451,1.079853,2.055411,1.477299,2.431569,2.159938,high
0.663502,0.357798,0.605997,0.128903,0.065600,0.000482,1.628137,0.169519,2.169103,1.587489,1.145797,2.453663,1.070745,1.110777,2.883081,2.270724,1.343217,2.132956,medium
0.005062,0.494212,0.849446,0.719997,0.840671,0.337029,0.628483,1.483218,1.179739,1.543339,2.068235,1.631447,2.209038,1.697832,2.238221,2.707526,1.223425,1.441739,medium
0.160808,0.828249,0.044997,0.101166,1.790200,0.060847,1.947053,1.386852,0.651700,1.708476,1.794759,2.025487,1.925256,2.241608,2.451290,1.448134,1.305154,1.817379,high
0.548734,0.335208,0.734151,0.623138,1.965305,0.656294,0.575875,0.501608,2.277273,0.056174,0.158936,1.681794,2.276763,1.804622,1.565304,2.015754,1.493637,1.247956,low
0.691895,0.173762,0.341319,0.356067,1.274095,1.816379,1.778609,0.505668,2.352884,2.133682,0.235165,1.066286,2.460125,1.051109,2.177964,2.297380,1.336464,2.525059,high
0.651961,0.712014,0.478528,0.788914,0.323275,0.193904,1.761497,1.257721,2.768085,2.137183,0.062292,1.706582,2.768943,1.952965,1.286954,2.129252,2.347999,1.662318,high
0.224269,0.825978,0.928860,0.233690,1.811699,1.212820,1.515315,1.524342,1.128495,0.346409,1.112502,0.772396,1.292810,1.884261,1.808966,1.731299,1.841666,2.503932,medium
0.712179,0.100637,0.331972,0.639202,1.032496,0.902992,1.126941,1.752971,1.518755,1.710718,2.237403,1.320838,2.954092,2.513699,1.066481,2.284399,2.075583,1.743392,very_high
0.237249,0.239874,0.465337,0.235683,0.307499,1.876936,0.240005,1.704279,1.089385,1.705084,0.518266,0.842326,0.646982,1.559226,1.433256,1.056492,1.094674,2.977514,low
0.325400,0.141972,0.013682,0.713660,1.843453,0.245038,1.063943,1.929766,0.771245,2.047351,1.817559,0.368663,2.143095,1.435062,1.149737,1.739812,2.722498,1.342243,low
0.746491,0.347941,0.081599,0.873678,1.514938,0.424056,0.713593,1.162770,2.253099,0.256193,0.866483,0.965586,1.602028,1.511878,1.775558,2.065224,1.341143,1.003048,low
0.649633,0.450351,0.258592,0.126802,1.463411,0.059084,1.584434,1.817311,1.018956,1.879510,2.390978,2.555962,2.450702,1.607480,2.686070,1.041226,1.720305,2.189651,very_high
0.849223,0.748826,0.027852,0.866596,1.418361,0.867870,1.516258,1.617027,1.284448,0.842256,2.395188,1.143242,1.430312,2.198330,1.755868,2.015298,1.143803,2.905906,high
0.657613,0.651148,0.631375,0.593575,0.400680,0.555666,1.821225,1.789335,1.211021,1.521009,2.326244,2.244011,2.351816,1.943051,2.663279,2.308509,1.273586,2.294108,very_high
0.568309,0.620929,0.426398,0.127110,0.422013,1.739812,0.029660,0.023253,2.137984,2.319971,1.574501,0.525594,2.790506,1.673789,2.312997,2.518415,2.331599,1.171447,high
0.093675,0.352375,0.548145,0.427542,1.376586,1.209882,1.618206,1.931806,2.753387,2.116938,0.853700,1.273257,2.196883,1.748628,2.019059,1.226748,2.385174,2.080961,very_high
0.367716,0.841448,0.174647,0.160860,0.439446,1.228181,1.876924,0.947060,2.000268,0.356709,2.428332,0.344568,2.328283,1.741847,1.473783,2.981130,2.353931,2.818974,high
0.265202,0.471287,0.295932,0.700348,0.877343,1.063821,1.578601,1.596366,1.414748,1.773554,0.558302,0.415863,0.201526,2.944813,2.844312,2.212335,2.104274,1.013012,medium
0.243990,0.979105,0.663824,0.758868,1.564004,0.183701,0.260389,0.254408,2.337615,2.907350,0.869279,1.852309,0.614873,1.465994,1.108402,1.726388,2.905043,1.333824,medium
0.973011,0.634142,0.965303,0.105797,1.567905,0.890037,0.162558,0.791882,1.922914,0.470308,0.551843,1.822445,2.922911,2.636123,2.377826,1.498186,2.014354,2.629123,high
0.393098,0.126265,0.050417,0.506140,0.906524,1.999010,0.041690,0.542921,0.181831,2.558721,2.022630,0.640116,2.079561,2.416422,2.242480,2.145794,1.898824,2.787814,high
0.892047,0.676178,0.890384,0.814625,1.584380,1.670459,1.257490,0.583318,0.286991,2.107644,2.058708,1.423270,1.684347,1.011140,1.882083,2.763423,1.495091,2.414321,high
0.631139,0.325104,0.576881,0.936163,1.677244,1.786918,1.259345,0.246511,0.113751,2.322010,1.957530,2.589919,1.100929,2.986352,1.480642,2.041131,1.197699,2.983120,very_high
0.794811,0.686327,0.563920,0.513518,1.309552,1.646453,1.973827,1.611528,1.370449,0.845875,1.246804,0.522605,0.133167,2.512879,1.861392,2.322944,2.096310,1.180432,medium
0.502637,0.069641,0.500279,0.950279,0.456852,0.206083,0.796086,0.018485,2.477560,0.863667,0.300513,0.057632,1.107408,2.364899,2.745545,1.715393,1.629780,2.091353,low
0.576904,0.174881,0.069394,0.535689,0.548024,0.454897,0.663813,0.625011,0.939250,2.718058,2.733509,1.955985,1.496739,1.810649,2.673532,1.776305,2.048051,2.369989,high
0.492518,0.855737,0.089877,0.394190,0.629682,0.006243,1.248850,0.348821,1.152481,1.079496,1.523193,0.160495,0.634379,2.110406,2.882762,1.572350,1.412238,2.405289,low
0.195243,0.227180,0.600912,0.848203,0.233608,0.607020,1.651217,1.178078,2.728431,0.189046,1.220917,2.939821,0.519410,1.506542,1.615586,2.411275,2.676345,2.586969,high
0.722452,0.837041,0.340959,0.492983,0.546319,0.217215,1.873548,0.508505,2.510710,1.801790,1.766475,1.828861,1.525250,1.070967,1.774208,1.718375,2.999394,2.835252,very_high
0.280772,0.279276,0.917268,0.471903,0.419038,0.945587,1.606248,0.517997,1.995144,0.374453,0.578371,1.411189,1.757713,2.672043,1.037452,1.381433,1.644807,1.723283,low
0.024316,0.642882,0.406591,0.490312,0.910657,1.354255,0.853348,0.976676,0.800411,2.389789,0.397646,1.289978,0.719754,2.792969,2.885900,1.738801,2.684655,1.085927,medium
0.645472,0.694151,0.143281,0.846785,1.816875,1.749011,1.269828,1.305378,0.351124,1.925239,1.216576,1.719212,1.762168,1.324941,1.658780,2.707654,2.745972,1.724884,high
0.177111,0.512655,0.714719,0.831942,0.208961,1.498434,1.712599,0.242609,0.048176,2.624180,0.681662,0.271873,2.701020,2.574112,1.808328,2.476504,2.992148,2.343230,high
0.940459,0.305311,0.293353,0.403520,1.440536,1.877171,0.981219,0.351023,0.321032,2.354512,0.732871,2.790057,1.419520,2.482305,2.815609,1.669282,1.685440,1.426912,high
0.953929,0.212644,0.525470,0.333300,1.374566,0.107797,0.433373,0.494349,0.877789,0.336341,2.677534,1.876926,2.572171,1.356750,2.053197,2.813618,2.512083,2.619946,high
0.914864,0.033189,0.697833,0.491928,0.191508,0.024360,0.339447,1.947496,1.655370,1.143212,1.592278,0.551935,2.781814,1.843658,2.132349,1.149665,1.457618,1.439529,low
0.370159,0.303946,0.900264,0.572773,1.845145,1.322676,0.000315,0.794305,0.192000,2.323681,1.450407,1.687743,0.277182,1.845516,1.352466,1.099508,2.249592,1.020127,low
0.015457,0.653163,0.792191,0.238337,1.136944,0.578705,1.436476,1.197980,0.408683,1.252024,2.068439,0.399770,0.287435,2.519929,1.997320,1.254941,2.409685,2.016162,low
0.928319,0.938305,0.676361,0.793955,0.727451,0.507002,0.222194,0.483086,0.543242,2.917096,2.854644,0.052658,1.428133,2.675322,2.836417,1.232910,2.482241,2.452923,high
0.428184,0.871204,0.679633,0.486483,1.513077,0.661774,0.487678,0.980919,1.895946,2.207221,0.336596,1.891551,1.764307,1.189550,2.117436,1.175669,1.414344,1.699311,low
0.966655,0.766065,0.945925,0.334046,0.514731,0.539592,0.595753,0.148238,1.847369,0.046500,2.500604,1.945450,1.277650,2.125938,1.510233,2.322685,2.697451,2.497792,high
0.963620,0.788447,0.295824,0.106821,1.387020,1.022873,1.120760,0.069484,1.652297,2.639957,1.752058,1.751090,0.979352,2.523497,1.062362,2.201685,1.841944,1.876809,high
0.853009,0.664985,0.001112,0.238845,0.079422,0.880297,0.795915,0.937467,0.751504,0.302414,0.438496,0.550450,1.922982,2.572381,1.672604,2.295211,1.432739,1.343429,low
0.294449,0.260287,0.271955,0.949281,1.678816,1.024857,1.349348,0.797319,1.113359,0.421571,0.891448,1.810290,0.006245,1.295987,2.145182,2.376732,2.085062,1.181117,low
0.385098,0.907195,0.217891,0.305100,0.896342,1.345427,0.111277,0.273761,0.290069,2.203477,1.447084,0.169533,2.904220,2.051010,1.085227,2.513760,2.726714,2.421174,medium
0.851137,0.670732,0.661835,0.168859,1.273386,0.774261,0.247878,1.375203,0.679382,2.594906,2.073531,1.827715,0.696237,2.715117,2.219585,1.414354,2.934176,1.771430,high
0.316922,0.560441,0.633712,0.460673,0.442476,0.502615,0.998423,1.985807,2.693116,1.609049,0.727821,1.662051,2.751296,1.637037,2.046828,2.244607,2.496416,2.825548,very_high
0.169493,0.110989,0.593461,0.307088,1.354147,0.332401,0.673930,0.791294,2.939075,0.867149,1.604636,1.965764,0.327044,1.850234,2.566871,2.160097,1.011246,2.080510,medium
0.556801,0.447056,0.016243,0.035159,1.544481,0.698948,0.591627,1.249117,1.942979,1.053947,2.054015,2.686427,0.714262,2.608717,1.057776,2.887320,1.269402,1.696865,medium
0.936155,0.460358,0.728778,0.323145,0.946426,1.483613,0.134056,1.925952,2.750470,1.028668,1.346222,2.551074,0.704621,1.178639,2.561695,1.464735,1.152548,1.697982,medium
0.696030,0.864564,0.323530,0.544109,1.235454,1.513410,1.791438,1.663070,1.928226,0.980034,2.589078,2.941963,2.988459,2.718987,2.041754,1.117446,1.202427,1.262876,very_high
0.570061,0.546648,0.665056,0.551712,0.912652,1.333811,1.383637,0.927104,0.099589,0.728729,2.608377,2.928723,0.013802,1.622313,1.741059,2.306990,1.766070,2.187578,medium
0.097176,0.380401,0.556578,0.356559,1.788183,0.468056,0.243236,1.474979,2.990288,1.826601,1.412074,2.316959,1.918915,1.002901,2.930766,2.480346,1.676987,2.164334,very_high
0.615007,0.976800,0.342731,0.447303,0.995738,1.176172,0.130092,0.256270,0.296857,2.701216,2.918777,2.869259,2.609060,1.468318,1.320239,1.566392,1.227370,2.599987,high
0.990054,0.110721,0.134576,0.965518,1.683617,1.141379,1.949745,1.024208,2.047925,0.921247,0.226755,2.601852,2.016821,1.179001,2.082650,2.141697,2.764471,1.402394,high
0.140084,0.422548,0.094419,0.377348,1.602704,0.968532,1.362345,0.558121,0.758509,0.560083,0.010087,2.182747,1.088201,1.184770,1.641963,1.119072,2.230855,1.581579,low
0.518330,0.042025,0.831518,0.258227,0.821010,1.099958,0.834912,0.322327,1.175943,2.515733,1.142005,0.226153,2.874928,2.385671,2.054973,2.920090,2.592927,1.194476,high
0.877373,0.739904,0.918398,0.243467,0.460169,0.983581,1.403462,0.852562,1.937803,2.225350,1.803291,0.147150,2.680562,1.427953,2.104551,1.219850,1.743099,1.590684,medium
0.740769,0.918077,0.649788,0.457765,0.812164,1.130913,1.512664,0.262029,1.309462,2.792511,1.887600,2.512799,1.301865,2.869485,1.178896,1.135141,1.820472,1.856204,high
0.697016,0.280037,0.103434,0.759520,1.652435,1.431012,1.559924,1.397970,0.751638,0.496559,1.429337,1.468968,1.719985,2.032889,2.322270,1.088220,1.635242,2.928057,medium
0.702484,0.858342,0.402027,0.205988,0.455265,0.219256,0.955755,0.912480,1.003339,0.432754,0.374650,2.443820,2.902558,1.920197,2.268963,1.854544,1.876853,2.306132,medium
0.359491,0.292218,0.728939,0.709296,1.048873,1.499252,0.859766,1.062289,1.024644,1.624288,0.511493,0.938755,2.947681,1.868567,2.538935,1.194319,2.220755,2.565748,high
0.293592,0.910770,0.779821,0.021150,1.612193,0.271772,0.022056,0.292752,2.877972,1.843301,2.556444,1.192950,1.349470,2.385175,1.181317,2.489296,1.985968,1.651020,high
0.809361,0.753962,0.118219,0.418933,0.706955,0.133256,1.853114,0.279543,2.395839,1.440520,2.603733,2.100560,2.542050,1.904526,1.594517,2.797748,2.675834,1.289026,very_high
0.810113,0.804907,0.000031,0.775865,1.284419,1.952159,1.206616,1.166831,1.375646,1.796900,2.021696,2.745980,0.905941,1.257201,2.300221,1.520438,2.800278,1.513440,high
0.867072,0.018007,0.712137,0.338733,0.491263,1.913984,0.406308,1.970019,0.599463,0.541139,1.992654,0.263284,1.115439,2.760344,1.273462,2.257546,1.939368,1.512935,low
0.913241,0.962810,0.356596,0.563737,0.218559,0.120873,1.839207,0.192501,2.433048,1.438841,1.793046,2.584434,0.494466,1.856791,2.355196,1.084677,1.479496,2.166231,medium
0.511342,0.726671,0.254481,0.204979,1.588768,0.886507,1.829864,0.571463,0.471547,1.974278,0.608778,2.379038,0.627554,1.148009,1.118053,1.773129,2.890385,1.682942,low
0.501516,0.304751,0.012897,0.741995,0.197937,0.372490,1.978368,1.738918,0.631387,1.298119,1.284752,0.946618,1.970620,2.058732,1.669863,1.585884,2.470077,2.714798,medium
0.798295,0.829395,0.540299,0.052279,0.542763,0.970690,1.748113,0.144544,1.098040,2.038342,2.087684,1.065650,1.532345,2.294694,2.693422,1.457238,2.280254,2.977089,very_high
0.649964,0.281521,0.851151,0.852543,1.710219,1.660354,1.995569,1.751771,2.641045,1.353574,1.611757,0.139384,0.693396,1.551165,2.548583,2.289447,2.490827,1.686597,high
0.701967,0.872754,0.957632,0.198196,0.692939,1.901224,0.489372,1.048572,0.395360,1.000799,0.055741,0.047222,1.208729,2.600681,2.289521,1.260456,1.151964,2.410121,low
0.795793,0.112580,0.565745,0.874398,1.946091,1.268505,1.684499,0.816534,0.366703,0.910815,2.860670,1.431018,1.119550,2.339552,2.740917,2.721421,1.135253,2.314973,very_high
0.890005,0.703686,0.514461,0.352529,1.959469,0.707811,1.646057,0.619361,1.481925,1.232706,2.534448,0.286619,2.962081,2.300682,2.418539,2.329672,1.306241,1.388925,high
0.337995,0.540698,0.085056,0.722684,0.536552,1.206651,0.461881,0.594234,0.829232,0.069269,0.781635,0.582005,2.560698,1.841650,2.038750,2.421470,1.294902,2.836017,low
0.375583,0.096534,0.548873,0.319225,0.081956,0.624003,0.196875,0.611605,1.706184,2.005575,1.849377,2.540302,1.163899,2.923831,2.959435,2.870689,1.841341,1.398885,very_high
0.093982,0.241894,0.379979,0.905912,1.410127,1.819647,1.958841,1.769606,1.354910,2.535317,2.769718,1.713085,2.741750,1.548378,2.389712,2.884746,1.314808,2.473914,very_high
0.578280,0.012404,0.607135,0.126637,0.901973,1.740801,0.592049,1.447590,1.304877,1.063881,0.288033,1.900897,1.027906,2.155411,2.202734,2.103305,2.709051,1.695219,medium
0.035942,0.468768,0.388726,0.178520,0.201506,1.116464,1.741784,1.339446,0.335919,0.138099,1.509088,0.562438,2.003705,1.618110,1.817741,1.990760,2.156194,1.734163,low
0.465598,0.301265,0.240299,0.493030,1.415046,0.649598,0.008254,1.597498,0.423149,2.960327,1.368729,2.485985,2.899950,2.489610,2.804825,1.670763,1.736524,1.910898,very_high
0.542645,0.598357,0.094965,0.081938,0.062350,0.586779,0.042050,0.514229,2.463236,0.791095,1.230615,2.603939,1.170837,1.095583,1.591418,2.431143,1.139245,2.729016,low
0.286541,0.297238,0.314918,0.195980,1.740393,0.066836,0.931743,1.236086,2.657648,0.379863,2.506766,1.569983,2.039655,1.091788,1.018439,2.076418,2.182056,1.280504,medium
0.590833,0.299919,0.096645,0.943766,0.277305,1.631642,0.477429,0.920132,0.704051,1.109258,1.141938,2.737673,0.887771,2.621722,1.393481,2.865750,1.233066,1.109139,low
0.030500,0.743193,0.176897,0.976490,0.254624,0.900766,1.379683,1.564883,0.340382,2.215671,0.190990,2.534486,0.798937,1.868536,1.219035,1.477252,2.486441,1.804082,low
0.037348,0.048143,0.987336,0.376259,0.351345,0.650266,1.131129,0.618512,0.160250,0.881750,0.197513,2.193973,1.722470,1.682360,1.637988,1.620505,2.605516,1.111170,low
0.822601,0.902895,0.444104,0.923286,1.920533,0.942221,0.154972,1.286357,1.824893,1.724110,0.128234,2.202228,2.937794,2.215054,2.651757,1.632181,2.087953,2.375202,very_high
0.360191,0.852264,0.531872,0.544825,1.386339,1.637476,0.325257,1.764425,2.146060,1.246680,1.227436,0.316180,1.359402,2.403799,2.303059,2.611997,1.299206,2.520650,high
0.127061,0.667805,0.873619,0.269742,1.602743,0.249228,0.776099,0.804301,1.118430,0.353292,2.155219,0.812508,2.812911,1.402403,1.337961,1.198081,2.573725,2.709425,medium
0.522243,0.593222,0.995569,0.702399,0.795270,1.715312,0.371208,0.133244,2.039028,0.990861,0.611167,0.200542,2.743091,1.370862,2.577643,1.911298,1.615656,2.487684,medium
0.769994,0.892302,0.582714,0.658902,0.672625,1.795018,1.584445,1.032102,2.138876,2.174612,1.939406,0.026044,0.761288,2.916301,2.008440,1.855161,1.445306,2.832703,high
0.215821,0.185330,0.812474,0.989125,0.468968,1.893416,0.832140,0.691945,2.806027,1.836012,2.061265,0.474929,1.205458,2.179329,2.025429,1.146279,1.941113,2.496602,high
0.622890,0.078969,0.326941,0.265047,0.961296,0.794976,0.186864,1.344451,0.194621,0.359335,0.765606,2.641462,1.929907,1.780233,1.724224,1.821594,2.845292,2.872151,medium
0.085347,0.239510,0.305744,0.672060,1.103657,0.434281,0.968686,1.902066,0.576875,0.489967,1.801673,0.719622,1.554138,2.602883,2.729233,2.026756,1.594747,1.386222,medium
0.051682,0.794578,0.402704,0.052024,1.263550,0.747282,0.181676,0.971217,0.205578,1.922200,2.054605,2.910462,0.287876,2.050318,1.636655,1.130209,2.811157,1.999726,medium
0.531355,0.034670,0.672507,0.113646,0.514237,0.665824,0.257875,0.932380,2.603982,2.440246,1.399841,1.791873,2.981094,1.483326,1.188280,2.019724,1.107307,2.987861,high
0.540635,0.582807,0.682192,0.003918,1.897308,0.352308,0.479220,1.309170,2.377761,1.048423,1.010150,0.711775,2.257962,1.413471,1.605458,2.918476,1.167047,2.363156,medium
0.637430,0.995438,0.315239,0.999461,0.339517,1.214533,1.719055,0.206995,1.723926,1.785932,1.857455,1.491392,1.313082,1.793719,2.430707,2.957829,2.397122,2.757282,very_high
0.726091,0.855696,0.133210,0.802274,1.931306,0.953248,1.849225,0.507012,0.250990,0.511931,2.933541,0.657284,1.854506,2.719792,2.315164,2.063360,1.381185,1.060788,medium
0.975852,0.521446,0.632396,0.786723,0.029712,1.731402,1.652515,1.837959,0.819937,0.934129,1.280524,2.951921,0.262718,1.122896,1.376034,2.030194,1.633241,2.743516,medium
0.516300,0.063641,0.128326,0.509726,0.962251,0.064219,0.668154,1.339885,0.893160,0.060811,1.175205,2.541795,1.485905,1.437052,1.223569,1.571016,1.272746,2.395426,low
0.322956,0.831374,0.578493,0.300067,0.666736,1.287736,0.544893,0.026888,1.682230,2.304828,1.392801,0.078716,2.792497,2.786304,2.321732,2.994231,1.664497,1.341511,high
0.795186,0.598979,0.693422,0.151264,0.898247,1.525898,1.098311,0.409251,0.774132,1.203029,0.228655,2.843328,2.689803,1.243469,2.352754,1.548458,1.560920,1.051362,low
0.270832,0.114933,0.700611,0.284675,1.141329,1.518973,1.443706,1.365675,0.218880,2.448377,1.659490,2.163195,1.012143,2.259251,1.732299,1.905803,2.472675,1.519853,high
0.438971,0.093857,0.753472,0.375971,0.871178,1.772148,1.986746,1.528798,2.192287,2.125119,0.986092,0.247144,1.594104,1.427023,2.685603,1.005868,2.404047,2.831547,high
0.078456,0.909627,0.872859,0.756310,0.829694,1.458067,0.263141,1.679719,0.897241,2.486233,0.364266,2.011913,2.092151,2.211734,2.956410,1.698465,2.909854,2.336266,very_high
0.025351,0.669200,0.499959,0.539662,1.465447,1.855620,0.098584,0.584354,1.357123,0.856976,1.398770,1.940780,1.020028,1.766208,1.411290,1.142881,2.448843,2.838938,medium
0.962648,0.829287,0.730249,0.077484,1.371753,0.665313,1.388712,1.862057,0.383000,0.555326,0.010152,0.656366,0.194638,1.203354,2.154137,2.487650,2.389636,1.892302,low
0.835980,0.878979,0.619173,0.018029,1.666543,1.006419,1.664452,1.105894,2.407645,2.915717,1.205356,2.275340,1.516325,2.164950,1.010693,2.122029,2.388408,2.873254,very_high
0.695974,0.571772,0.186640,0.102332,0.499918,0.028159,1.692698,1.393078,1.696596,2.151983,0.317206,0.261194,1.804907,2.366085,2.426109,2.144344,2.765935,1.925920,high
0.408953,0.517446,0.025690,0.410499,1.219057,0.013915,1.356927,1.193478,2.704757,2.502127,0.072878,1.468336,0.017525,2.360545,1.828564,1.573023,1.592473,1.408509,low
0.173294,0.430427,0.284541,0.933193,1.170390,0.480253,1.908032,0.245480,1.486415,0.039400,2.473425,0.029770,0.286726,2.274069,1.386538,2.629793,1.600184,1.302787,low
0.156437,0.316947,0.443034,0.637402,0.739476,0.201614,1.022010,1.926229,2.824277,1.063385,2.748746,2.906212,0.621872,2.000450,2.504444,1.006542,2.482428,2.987624,very_high
0.250243,0.434596,0.617106,0.801826,0.972115,0.520423,1.827630,0.245751,2.675605,2.228450,0.623024,2.254691,1.044157,2.038945,2.621298,1.667202,1.457410,1.667725,high
0.549227,0.773880,0.849959,0.466375,0.627564,0.354087,1.935624,0.509764,1.729380,0.233948,1.617895,0.476556,1.623154,2.271280,1.222333,2.318995,2.824040,1.320106,low
0.714596,0.601923,0.196246,0.361666,0.283689,0.057040,1.694315,1.627256,2.801680,1.702020,0.833874,1.025022,0.881529,2.380519,1.081992,2.815845,2.069563,1.016817,medium
0.660197,0.892523,0.125550,0.108400,0.427602,1.818608,0.619517,1.237194,0.969266,1.287218,1.480732,0.481687,0.828551,2.309753,1.668157,1.469232,1.600250,1.571139,low
0.279934,0.443380,0.963480,0.875933,0.211027,0.016446,0.392431,1.676298,1.096926,0.052850,1.309894,2.299852,2.608048,2.173891,2.251981,2.082200,2.552200,2.778232,high
0.954865,0.607090,0.108045,0.783160,1.366139,1.472164,1.096240,1.031472,0.136434,0.707927,0.807153,0.176689,0.435152,1.311678,2.586839,2.075983,1.624641,2.068019,low
0.737897,0.631308,0.478491,0.168118,1.321455,0.304296,0.906030,0.753986,1.767603,0.854376,2.101181,2.521220,1.486380,1.421233,2.092125,2.748349,2.926557,2.264870,very_high
0.554354,0.591697,0.585564,0.512261,1.901213,1.824459,1.755517,1.843691,2.165772,0.335580,0.379473,2.826589,2.858474,1.520448,2.161498,1.101034,2.965978,2.844782,very_high
0.611721,0.702634,0.541374,0.487375,1.459357,1.785592,0.200063,0.072505,2.320558,1.894611,0.159218,2.029884,1.875040,2.839323,2.599716,1.848951,2.333592,2.025680,very_high
0.419600,0.237433,0.086032,0.625092,0.104092,1.307802,0.515480,1.712260,0.449449,0.727194,2.303026,0.638896,2.151616,2.518790,2.057687,1.364931,1.227268,2.676560,medium
0.247731,0.512364,0.057027,0.946187,1.768490,1.344468,1.503598,0.461636,1.332477,0.832858,1.997790,1.080270,1.293711,2.105734,2.222309,1.043065,1.526418,1.647667,low
0.355973,0.104225,0.105483,0.579771,1.725350,0.010678,0.189973,1.697473,0.530590,2.694716,1.495578,1.431720,0.059797,1.504114,2.032435,1.294062,2.030834,2.954204,low
0.757846,0.384511,0.585588,0.540217,0.886641,1.969743,0.641529,0.278393,1.986382,1.401369,1.403369,1.813874,1.938391,1.221783,2.760916,2.952941,2.702895,1.157628,very_high
0.014393,0.487667,0.544345,0.050323,1.171726,1.755665,0.774311,1.160438,0.473839,1.176384,1.492234,2.005989,1.895773,2.797518,1.471033,1.429697,1.369773,2.449659,medium
0.116073,0.652224,0.233741,0.062907,1.952157,1.790212,1.245188,1.776216,2.712491,2.171613,1.311072,1.662644,0.331283,2.785332,1.527987,2.870062,1.208807,2.321133,very_high
0.046003,0.950531,0.637774,0.187347,1.064609,1.318489,0.316265,0.947079,0.691904,2.728841,1.178677,1.053942,1.386479,1.221391,1.255923,1.410509,1.148955,1.383343,low
0.040729,0.600651,0.820068,0.032471,1.810644,0.689574,1.721209,1.493133,0.874207,0.075109,1.499072,2.672752,2.745987,2.594433,2.638934,2.862590,2.013935,1.777688,very_high
0.855461,0.743594,0.041579,0.743353,0.166078,1.787297,0.895084,1.609343,2.552719,1.344717,1.585546,0.244176,0.615254,1.893290,1.823555,2.309242,2.769402,1.625658,medium
0.703658,0.506266,0.498130,0.723330,0.382104,0.583034,1.834043,1.472988,1.375403,1.832344,2.075707,1.398768,1.383296,1.647934,1.695788,1.226437,1.084718,1.188986,low
0.474174,0.634104,0.689310,0.136056,0.881510,1.125423,0.935740,1.850659,0.071988,0.955689,2.133621,2.326695,1.383310,2.478209,2.962697,2.163830,1.424643,2.169576,high
0.097834,0.070932,0.252312,0.836079,1.169514,0.199462,0.550081,0.893668,1.483759,2.317223,1.132887,0.182618,2.432284,2.228659,2.853607,1.637028,2.386514,2.987340,high
0.491616,0.254392,0.307771,0.154786,1.632456,1.843911,0.283658,0.346251,0.253630,2.914431,1.240622,2.116006,2.473728,2.560060,2.943975,1.766306,2.651727,2.119176,very_high
0.473472,0.361853,0.613638,0.301176,1.976524,0.281541,0.007490,0.095622,2.956034,2.830282,1.121092,2.459135,2.277808,1.148658,1.284598,1.880342,2.614799,2.090520,high
0.173202,0.472493,0.897935,0.248977,0.777703,0.449794,1.064315,0.492920,1.764335,0.797948,1.609607,1.982494,1.096362,1.637174,2.782504,1.845414,2.570136,1.080627,medium
0.433852,0.045649,0.809924,0.372307,0.094831,1.116268,0.214313,0.286395,0.769598,0.679015,1.360061,0.038811,0.216111,1.638634,1.657419,2.328218,1.259600,1.278440,low
0.398505,0.140024,0.583130,0.254664,1.602343,1.528186,0.783456,1.115897,1.691153,2.872472,2.668789,0.540411,1.048449,1.659506,1.025314,2.536736,1.794475,2.026438,high
0.615850,0.276814,0.730222,0.488951,1.208761,1.238703,1.178544,0.369891,0.230601,1.375885,2.089084,1.026339,2.039374,2.004960,1.782597,1.658355,2.969489,2.970357,high
0.635094,0.971533,0.364822,0.407408,0.397086,0.464268,0.551372,0.077867,2.399674,0.624893,2.695969,0.701070,2.108240,1.566028,2.018393,2.848728,2.977775,2.753215,very_high
0.045304,0.331347,0.640966,0.986569,0.989657,0.001886,0.350449,0.071980,2.775984,2.120991,2.127411,2.887956,2.895001,1.888767,1.216441,2.876933,2.204855,1.680418,very_high
0.374613,0.482041,0.466182,0.055926,1.484620,1.514301,1.549443,1.663139,2.623333,0.853261,2.912976,1.954782,1.360924,1.735555,2.075355,1.081381,2.418534,2.086009,very_high
0.625860,0.196098,0.189936,0.142181,1.540824,1.970415,1.893582,1.182900,1.025273,0.801741,1.907210,0.890913,1.897307,2.470592,2.638927,1.029818,2.902568,2.105404,very_high
0.503136,0.610780,0.701738,0.052826,0.999237,1.619826,0.200881,0.716171,0.977304,2.637747,2.890650,2.789092,1.617573,2.207002,1.755302,1.850133,1.899856,2.370721,very_high
0.856490,0.280683,0.556465,0.625841,0.610429,0.920413,0.311181,1.788456,0.105263,0.487437,0.474510,2.221783,0.451856,2.307259,1.705290,2.181291,1.273734,2.375564,low
0.658694,0.206993,0.358622,0.054509,1.947485,1.807535,1.920025,0.140393,1.954201,0.193179,0.157433,0.853822,1.383607,1.421168,1.677621,1.555809,2.337898,2.579585,low
0.162934,0.516573,0.911339,0.836440,1.326725,0.819695,0.075568,1.960644,1.604714,0.807559,1.737376,1.136645,1.634505,1.651004,2.846189,1.518828,2.920205,1.049942,medium
0.070569,0.005506,0.020934,0.511939,0.816475,1.049868,1.955265,1.232584,1.378039,1.820836,2.950480,0.598287,2.852249,1.042331,1.097516,2.356668,2.394412,2.887360,very_high
0.642419,0.007664,0.315773,0.527008,0.560926,0.954260,0.009289,0.366929,2.722893,0.369264,1.252816,2.913222,1.099617,1.216749,1.890152,2.203409,2.606642,1.140124,low
0.026511,0.219069,0.056881,0.561595,1.462206,0.895248,1.747337,1.358138,0.503637,1.414784,0.636130,1.551889,2.940297,1.530108,1.529199,1.334294,1.845498,1.952320,low
0.585776,0.036721,0.766527,0.170814,0.484367,1.550382,0.614650,1.526763,0.028999,1.882011,1.564624,2.688170,1.626900,1.130927,2.787614,2.769002,1.192926,2.839159,high
0.940230,0.108026,0.702107,0.197690,0.343420,1.053538,1.877178,0.858686,0.219949,2.546211,1.946396,1.039499,0.727408,2.205265,1.192105,2.359952,1.337764,1.975338,low
0.575474,0.338861,0.331352,0.318817,1.059668,0.633434,0.633891,1.723265,0.670114,0.689609,0.945536,2.582525,0.574993,2.996260,1.822886,1.725152,2.965310,1.127274,medium
0.388170,0.802586,0.675663,0.593496,0.579975,0.516316,1.308613,0.301465,0.099857,2.452039,2.144308,0.161661,0.425085,1.201630,1.813632,2.367249,1.986369,1.458480,low
0.643288,0.572049,0.395937,0.210118,1.257810,0.075495,0.160065,0.557675,1.508531,0.704719,2.925344,2.946271,1.358799,2.642460,2.776789,1.225306,1.024041,2.157334,high
0.458253,0.512668,0.756254,0.116332,0.235877,1.166390,0.484660,0.186985,0.942271,2.030300,2.690889,2.736103,0.065779,1.237632,1.430987,1.936512,2.910735,1.175723,low
0.545617,0.293489,0.454184,0.970117,1.309882,0.459923,1.547359,0.421756,0.541449,1.292021,0.874756,1.089609,1.335136,2.339828,2.289791,1.337969,1.995560,1.847356,low
0.941465,0.931754,0.412280,0.021982,0.566593,0.296268,1.057372,0.477458,2.250252,0.344044,0.980171,2.324166,2.965214,2.286315,1.268812,1.082862,2.672537,1.658187,medium
0.386103,0.397015,0.934730,0.802697,0.000486,1.307660,1.855938,1.835266,0.613354,2.142790,1.114624,2.256774,2.010320,2.805434,2.907951,1.676653,2.096916,2.630415,very_high
0.961191,0.087093,0.250879,0.788035,0.253872,1.362419,0.857503,0.156219,2.062815,0.653288,1.183658,2.703764,2.279358,1.227891,2.186030,1.301471,1.203405,1.220264,low
0.905351,0.617067,0.120447,0.297214,1.867231,1.504310,1.739625,0.854830,1.047795,0.529870,0.300958,0.921765,0.357016,1.630889,2.252513,2.267036,2.231139,2.365597,low
0.195791,0.113838,0.584543,0.135627,1.734709,1.007154,0.897911,1.064797,1.535483,1.074969,2.285889,1.396560,1.419303,1.181560,1.867547,2.348136,2.994801,1.813178,high
0.069361,0.345223,0.969322,0.145629,0.467218,1.788109,1.958497,1.797386,2.801601,1.959871,1.096018,2.594999,0.858669,1.814767,1.684565,1.297385,1.069476,2.175501,high
0.100778,0.507412,0.377839,0.697432,1.556744,1.872686,1.919669,1.995392,0.112055,0.701989,2.639460,2.335738,2.682293,2.823186,1.425353,1.049226,2.683588,1.411064,very_high
0.018222,0.874223,0.062037,0.642807,1.217143,1.614742,0.658273,1.506776,1.500794,0.550985,2.780822,1.180400,0.543877,2.563046,2.207976,2.585621,1.470962,2.219407,high
0.094443,0.493547,0.339305,0.782746,1.941809,1.271187,1.771847,1.941582,2.563269,0.029861,0.073294,2.537176,1.376200,2.445800,2.909123,1.004114,1.787732,2.347955,high
0.683007,0.702259,0.505932,0.937481,0.747211,0.607442,1.695223,1.574202,1.763923,1.414929,2.965509,0.140862,1.764143,2.066055,1.719582,1.687826,1.745419,1.140463,medium
0.071189,0.992817,0.161923,0.691927,1.362921,1.965890,0.421361,1.926405,0.830612,1.285937,2.130068,2.346139,1.542123,2.766971,2.766314,1.989167,2.797594,2.648689,very_high
0.318976,0.131489,0.658102,0.155852,0.127071,0.548272,1.248581,1.414541,1.193043,0.701603,1.561177,0.620298,2.490731,1.898884,1.297553,2.637284,2.008972,2.722508,medium
0.844875,0.274732,0.997749,0.243443,0.792495,0.405314,0.145365,0.159527,2.040797,0.160956,1.168583,0.858363,0.694360,1.299371,2.872252,2.677117,1.894349,1.127108,low
0.023272,0.394576,0.451739,0.842194,1.927635,0.884308,1.673421,0.803840,2.672436,1.287768,1.555554,1.479645,1.132173,2.675170,1.700973,2.449879,2.636050,2.206375,very_high
0.814468,0.421828,0.354729,0.209306,1.077962,0.113681,0.349092,1.293195,0.123199,2.364615,0.973874,1.349204,2.376253,1.559277,1.759454,1.494395,1.097814,2.188023,low
0.281855,0.411021,0.400704,0.072522,0.575759,1.956989,0.141629,0.701437,0.214616,2.145846,1.868063,1.561710,1.584214,1.107267,1.925685,2.440374,1.172913,1.024917,low
0.118165,0.907611,0.115146,0.703280,0.240542,1.176867,0.800438,0.546768,0.975155,2.582385,0.278941,1.634327,1.206352,1.252076,2.436489,1.493078,1.043378,1.684693,low
0.696737,0.714033,0.883274,0.402526,1.407057,1.113904,1.153844,1.154799,0.698339,0.028748,1.863368,0.994583,0.088328,2.218118,2.439307,1.429216,2.375966,2.937852,medium
0.628943,0.607905,0.414826,0.920040,1.289712,1.311593,1.709834,1.867004,0.794793,2.899258,0.826035,0.525683,2.260156,2.214164,1.959177,2.094256,2.051232,2.110902,very_high
0.877472,0.309373,0.387274,0.650255,0.747877,0.994047,1.948485,0.069964,0.663810,1.024237,0.052904,2.305444,2.916546,1.520366,2.046306,2.357709,2.752044,2.866424,high
0.735071,0.823790,0.659690,0.090419,1.901883,0.064127,0.878985,1.538462,0.587475,2.971193,1.658117,1.199928,1.860861,2.454360,1.060021,1.106104,1.997066,2.351289,medium
0.803481,0.955061,0.442033,0.947857,0.044406,1.224623,0.120894,1.445455,0.391872,0.757858,1.735343,1.517523,2.569624,2.547280,1.608593,1.120045,1.443639,1.056781,low
0.282035,0.821198,0.648233,0.258557,0.607448,1.432348,1.498231,1.927907,2.801862,1.414609,1.279707,1.934090,1.550627,2.841005,1.692034,2.568341,2.610295,1.155426,very_high
0.177440,0.001565,0.061446,0.337212,1.842139,0.833498,1.130347,1.861422,0.432568,1.061783,0.216859,2.728914,0.695043,2.169875,2.117455,2.718995,1.588648,2.444358,medium
0.750615,0.636401,0.813723,0.402260,0.641871,1.514591,0.895783,1.524465,0.613211,1.067282,2.680029,2.122658,0.043326,2.558847,2.116600,2.208882,2.871380,2.109136,very_high
0.806835,0.051135,0.940504,0.051224,0.504506,0.454003,0.618538,1.040818,0.738797,2.526846,1.834292,0.136378,1.960195,2.506199,2.419800,1.857656,1.500848,1.254303,medium
0.990505,0.257607,0.648765,0.496515,1.068441,0.442553,1.004797,0.408535,2.799045,2.239257,0.347140,2.515681,1.479327,1.515618,2.434055,2.690633,1.335441,2.228125,high
0.412618,0.059525,0.954566,0.123318,1.647603,0.322834,0.677359,1.090471,2.267142,2.976454,1.532792,2.968065,2.346294,1.620452,1.470421,2.457634,1.986648,2.620575,very_high
0.372018,0.603795,0.151432,0.400970,0.206294,0.743990,1.514024,1.530704,2.369098,1.840544,1.491763,1.417455,2.084047,1.956965,2.540374,2.159188,1.101030,2.505965,high
0.776413,0.686590,0.477416,0.350710,1.886041,1.694024,1.087787,1.791338,0.314275,1.389770,0.181206,2.908771,2.963857,1.038078,1.039207,1.639514,1.072823,1.492325,low
0.340804,0.114488,0.601807,0.772840,1.590146,1.655824,1.753696,1.579424,2.508930,0.270222,1.820579,1.641986,1.530938,1.594796,2.432324,1.395990,1.992029,1.516390,high
0.930757,0.383839,0.581737,0.803171,0.362501,0.765648,1.087088,0.390534,1.224579,2.989684,2.424979,1.378848,1.281524,1.947766,1.204122,1.837346,1.430214,2.935676,high
0.858413,0.456237,0.401462,0.153413,1.424016,1.178237,0.476525,1.199373,0.788469,1.654592,2.247024,0.994214,0.860219,1.216139,2.459296,1.573645,1.018705,2.774810,low
0.428994,0.369053,0.338084,0.366551,0.769917,1.441633,1.702184,0.664347,1.727250,2.101432,0.608908,1.972665,1.430584,1.252552,2.054236,1.678517,1.592114,1.636675,medium
0.750871,0.121025,0.126824,0.373353,0.804589,0.482414,1.114438,0.018411,2.466549,1.220227,2.586878,0.689461,2.618614,1.926473,1.874509,2.031262,1.954735,2.648109,high
0.754543,0.418948,0.391742,0.151410,1.566580,0.336282,0.413682,0.400442,2.335956,1.643147,1.027626,0.314803,0.127319,2.461930,2.381333,1.338188,1.788577,1.323477,low
0.103124,0.751178,0.162661,0.798454,1.925570,1.944192,1.247016,0.226441,2.669992,2.827733,2.839525,0.081711,2.933700,2.667498,1.072742,2.612353,1.270939,1.393682,very_high
0.902553,0.071008,0.734366,0.707228,0.253312,1.235115,0.715434,1.685438,2.784397,0.499258,0.215244,0.877140,2.979922,2.092628,1.446941,1.291059,2.159350,1.362392,low
0.505252,0.080180,0.208831,0.190382,0.841260,1.962831,1.688811,0.517013,0.714366,0.877118,1.458626,1.187312,1.793464,1.949498,2.232880,1.961987,2.420666,1.175442,medium
0.826457,0.354771,0.058565,0.366722,0.961883,0.675512,0.906599,0.569396,1.271574,0.456179,1.791373,1.656230,0.994633,1.768561,2.694431,2.491943,2.351078,2.709356,high
0.320050,0.941726,0.552366,0.105805,0.752624,1.406063,1.452883,1.919873,0.043886,2.376648,0.742950,0.878249,0.669147,1.385898,1.762215,1.970041,1.787524,2.157614,low
0.895523,0.668573,0.595230,0.628207,0.726378,0.445207,0.191072,0.758173,2.637965,0.186136,2.314141,2.952179,0.829471,1.293124,1.517523,1.722044,1.275192,1.517912,low
0.389202,0.678670,0.871913,0.121372,0.104537,0.522400,0.792049,0.019171,0.463716,0.244895,1.880687,0.875236,0.150316,2.583793,2.037473,1.949783,1.998974,2.697310,low
0.010838,0.361920,0.576982,0.985934,1.371077,1.023804,1.966483,0.567692,2.584424,0.895482,0.054328,1.322926,1.425333,1.930013,2.244631,2.697341,2.780864,2.605294,very_high
0.905382,0.593661,0.345481,0.780682,0.872429,0.639236,1.616921,0.238599,0.988162,1.542565,1.825106,0.309828,0.171973,2.580640,1.840206,2.980863,1.937446,1.201903,low
0.091287,0.010131,0.803012,0.390239,0.389588,0.335243,0.319882,0.205617,1.104401,1.218824,1.474435,0.781880,2.155423,2.408166,2.753421,2.262287,1.391362,2.288279,medium
0.319314,0.636096,0.540279,0.578564,1.632067,0.525761,0.555528,0.154975,0.117397,0.134449,0.588088,0.144996,1.115788,1.387792,2.046877,2.586888,1.186107,2.443667,low
0.950062,0.913287,0.079280,0.911342,1.605121,0.071497,0.659632,1.186519,0.980636,2.872475,2.987245,1.678526,0.598094,2.020615,1.071647,1.028977,2.887853,2.431655,high
0.950607,0.612573,0.565851,0.554099,0.972783,1.408847,1.300731,0.378695,2.665091,2.858609,2.691487,2.253194,1.634561,1.888033,1.446108,2.760729,2.486019,2.446285,very_high
0.573438,0.873699,0.908019,0.174498,0.596901,0.984233,1.513990,0.722486,0.076642,0.838069,0.877523,0.587129,2.921278,1.847747,1.901294,2.908100,1.625934,1.338916,low
0.631837,0.723973,0.396313,0.378703,1.276185,0.188486,1.499053,1.724035,1.218982,2.194577,1.623213,1.103733,2.085393,2.085142,2.395451,2.150339,1.590705,1.630173,high
0.448446,0.120558,0.296326,0.843145,0.576304,0.343388,1.019748,0.848676,0.094199,1.735726,0.949506,0.049849,1.475241,2.964164,1.439504,2.507610,2.790437,2.688357,medium
0.293211,0.902453,0.143469,0.644213,0.472016,0.205069,1.621641,1.831383,1.112770,0.712430,2.326487,2.518566,2.330743,2.625801,2.952515,2.025489,1.355136,2.796784,very_high
0.328665,0.066444,0.151446,0.650724,1.461029,1.225186,0.874156,0.995876,0.517922,0.786515,2.790994,2.339891,2.212429,2.807425,1.637117,1.572407,2.070075,1.558378,high
0.672518,0.533967,0.432771,0.866821,0.080650,0.188421,0.247761,0.797673,0.756655,1.473460,1.076486,0.189762,2.675206,1.059279,2.064960,2.704496,2.427009,1.046039,low
0.752375,0.142137,0.595680,0.893973,0.189537,1.508565,1.128884,1.500778,2.632795,1.257711,2.416753,1.094603,0.614007,1.280673,1.037933,2.193673,1.792781,2.719534,medium
0.791579,0.011707,0.080615,0.919793,0.013576,0.041022,1.904603,0.146350,1.308148,0.873688,1.495223,2.865860,2.576633,1.169527,2.769781,2.158766,1.079805,1.754184,medium
0.789618,0.422034,0.939569,0.094849,0.305886,0.498752,1.585987,0.178957,0.821394,2.422535,1.189736,1.176081,0.903078,1.526462,2.577669,2.318264,1.455518,1.658927,low
0.091206,0.295041,0.755134,0.544126,0.137980,1.781333,1.157401,1.303947,1.768015,1.444389,2.815266,1.578626,2.822997,1.883785,1.390916,2.712006,2.803616,1.693999,very_high
0.494420,0.486000,0.586624,0.740510,1.991605,1.437063,1.293611,0.973881,0.426321,1.964544,1.531214,1.065729,0.843195,2.284106,2.866473,2.463812,2.046238,1.831393,high
0.057559,0.577200,0.828439,0.756927,0.577620,0.145937,1.861124,1.580831,0.778175,0.567821,1.402232,1.788394,2.780546,2.001663,1.631680,1.422248,2.630882,1.756533,medium
0.549529,0.043739,0.080187,0.606716,0.298536,1.642252,0.856686,1.832542,1.638744,1.600523,2.017303,2.934471,2.891372,2.806368,2.384373,1.933647,2.111371,2.132862,very_high
0.441531,0.123003,0.476839,0.166787,0.481993,0.986070,0.662788,0.776734,0.712569,0.953928,0.783703,2.992508,0.436474,2.879712,2.637953,2.960597,2.887204,1.157881,high
0.887704,0.558642,0.630093,0.797421,1.872251,1.693566,1.954483,1.192820,2.037383,1.579241,0.974379,2.324145,2.923500,1.327042,2.481829,2.109121,2.818268,2.943080,very_high
0.350915,0.343167,0.828653,0.720111,1.040320,1.201480,1.726886,1.001393,1.474474,2.342478,2.796138,1.212933,0.257169,2.705826,2.835166,2.876491,1.965776,2.872902,very_high
0.117067,0.729173,0.783470,0.086136,0.729636,1.363666,0.646087,1.963221,2.315967,2.306740,2.035590,1.483297,0.655703,1.963444,2.728550,2.626739,1.636548,2.868813,very_high
0.142992,0.652292,0.277069,0.463810,1.746783,1.987003,0.927561,1.662169,2.844734,1.062662,2.479911,1.070194,1.332506,1.906659,2.989223,2.332047,2.203338,2.758555,very_high
0.761511,0.845604,0.940880,0.173977,0.789981,0.464671,0.830156,1.823475,0.347415,2.082831,0.813335,2.956724,2.980792,2.569879,1.365223,1.698730,2.349775,2.320653,very_high
0.618218,0.692493,0.124346,0.337477,0.670017,1.247891,0.298191,0.508680,1.003995,2.823870,1.631371,2.123281,1.465689,1.186281,1.609524,1.608639,1.996710,1.442217,low
0.101123,0.429931,0.875134,0.018081,0.414565,0.920643,1.915639,1.545053,0.958647,1.877008,2.914189,1.346794,1.651228,2.764986,2.272452,2.286842,2.644566,1.098967,very_high
0.084107,0.672967,0.970940,0.400330,0.755594,0.078904,0.808625,0.530946,0.453549,0.445230,0.956112,0.036346,2.083275,2.341727,2.466094,1.865122,1.366657,1.198642,low
0.700969,0.275381,0.177154,0.549877,0.633369,0.028941,1.750658,0.417485,2.430909,2.039126,0.481429,1.561450,2.904881,2.750523,2.069210,2.597507,1.668824,1.647985,very_high
0.072763,0.306313,0.722066,0.619583,1.354608,0.238457,0.378712,1.888532,2.279636,0.314713,1.532658,2.951785,2.350054,2.988955,1.147857,2.520913,2.372753,2.007766,very_high
0.821860,0.788985,0.040286,0.663490,0.579165,1.298183,1.095742,0.038609,1.453276,2.616331,1.163463,1.569183,0.672462,2.036009,2.683190,1.624261,1.493368,2.986506,high
0.706242,0.446420,0.405423,0.836291,1.154399,1.134326,0.047923,1.930777,1.613312,1.549981,0.478732,0.547280,0.908973,1.186524,2.921749,2.405458,1.879689,1.870887,medium
0.081349,0.798380,0.516283,0.215463,0.131784,1.106859,1.528441,0.298524,0.178632,1.155422,2.665654,0.066281,0.292885,1.333048,1.811034,1.989100,2.927467,2.049292,low
0.084838,0.822422,0.580645,0.120482,0.382578,0.063714,1.161828,1.638876,1.666522,0.171020,2.972172,1.064111,1.933357,1.647236,1.449625,1.646584,2.251752,2.390314,medium
0.986640,0.857562,0.935937,0.851537,0.814811,0.938606,1.251179,0.551845,2.374025,1.142351,1.705747,2.754684,0.542221,1.207106,1.038628,1.825933,2.898114,1.361468,medium
0.374271,0.916635,0.672251,0.156613,1.873899,1.849246,0.103442,0.701405,1.721483,2.709620,2.324030,2.989662,0.772215,2.630684,1.474598,2.790704,2.444883,2.865654,very_high
0.370642,0.430985,0.481278,0.974760,0.754504,0.795184,0.422077,0.433515,0.795919,0.062949,2.577115,2.836104,2.664341,1.593736,2.399838,1.719035,2.449334,2.058069,high
0.812800,0.318867,0.809675,0.842538,1.328148,1.249845,0.148662,1.171028,2.002645,1.423944,2.102946,2.188260,0.980267,2.951772,2.823179,1.574799,2.183714,1.552513,very_high
0.947249,0.582199,0.950533,0.500877,0.510174,1.559637,0.577829,0.696191,1.084465,2.793474,0.132468,1.674428,1.699940,2.405183,1.187026,1.703614,1.284417,2.870218,medium
0.986001,0.371172,0.022066,0.981421,0.254067,1.567851,1.254878,1.314786,1.634620,1.184523,0.472903,1.772058,1.192698,1.346861,2.106518,1.429237,2.039429,2.250901,low
0.753378,0.601074,0.982521,0.097377,0.117073,1.038560,1.132372,0.031295,1.462696,1.284527,0.212968,1.616976,0.222094,1.952085,2.391062,2.089270,1.505332,1.967379,low
0.376260,0.705586,0.086132,0.303066,0.610827,1.715904,1.224300,0.128750,1.143525,1.735680,0.029639,2.121148,1.088591,1.933768,1.552762,1.294873,2.997345,2.160312,medium
0.083501,0.688405,0.814387,0.638224,0.315322,0.782756,1.098503,0.199322,2.156634,1.388812,0.917989,1.256620,1.224205,1.985023,2.139794,2.634888,1.533924,2.496604,medium
0.777147,0.374553,0.280335,0.350007,0.348021,1.777386,0.546058,0.837987,2.651628,0.505805,1.177068,2.007612,2.687103,2.071382,2.430497,1.451160,1.461372,1.309076,medium
0.558404,0.166860,0.132180,0.928373,1.521519,0.480454,0.489015,1.629592,0.015638,0.055667,0.723089,0.364836,0.973352,1.062346,2.675438,2.196110,2.247766,2.729661,low
0.424222,0.430529,0.439856,0.065626,0.031676,0.560433,0.274119,1.776356,2.800850,1.829435,0.193814,0.797086,1.137723,2.372602,1.905000,1.250051,2.021898,2.919014,medium
0.906354,0.142594,0.643957,0.549412,1.115620,0.106241,1.698142,0.489621,1.534545,2.762420,1.589589,2.508009,2.348690,1.974384,2.495714,2.956906,1.042706,2.133999,very_high
0.111197,0.890097,0.380952,0.590866,0.758923,1.591164,1.232959,1.148739,2.102196,0.319092,0.819958,2.711247,2.276870,2.581931,1.603566,1.909151,1.259066,2.364542,high
0.492625,0.345877,0.054565,0.652728,1.013100,0.834110,0.373022,1.536730,2.566874,0.632858,2.388111,1.617025,2.394856,2.630699,1.426093,2.644343,2.622086,2.719667,very_high
0.011354,0.154460,0.599461,0.255666,1.125660,0.458233,0.354419,0.577659,1.401311,1.110688,0.024158,0.094907,2.861312,1.461070,1.374627,2.537296,1.967384,1.749621,low
0.468661,0.025448,0.902403,0.364566,0.626735,0.463581,1.746071,0.818015,2.504922,2.426227,2.527581,2.780921,2.386672,1.096846,1.717745,2.427386,1.292030,2.985664,very_high
0.056303,0.645822,0.383215,0.843681,0.590218,1.802800,1.485462,1.047948,0.532859,0.807781,2.864261,2.106193,1.222825,2.406468,1.071759,2.654730,1.930485,2.361003,high
0.118818,0.636902,0.216333,0.194943,1.466804,1.667833,1.318798,0.269750,0.477503,2.646163,2.148405,1.242084,2.464526,2.955526,1.565984,1.200927,1.506298,1.847997,high
0.117526,0.340604,0.442577,0.826868,1.742554,1.107062,0.813728,0.051965,1.972414,0.164874,2.200932,1.795137,1.526024,1.893316,2.304446,2.356994,1.447183,2.354676,high
0.649210,0.071712,0.048363,0.562655,0.385163,1.232222,0.523951,0.305612,2.610429,2.822870,2.800687,1.289325,0.833142,1.519226,2.295838,1.531654,2.915451,2.043360,very_high
0.746045,0.409629,0.820488,0.762188,0.195238,0.948651,1.958902,1.253707,2.677279,1.682241,0.627214,1.396018,0.908751,1.313344,1.147108,2.571743,1.724049,1.223283,low
0.583369,0.311217,0.826341,0.713607,1.795592,0.783333,1.594479,0.147237,1.931221,1.976333,2.983697,2.660430,0.671527,1.574891,1.574831,2.913738,1.092862,2.591731,very_high
0.962173,0.677121,0.588000,0.207511,0.699791,1.830954,0.603558,0.379393,1.576468,1.103069,2.320444,0.483253,0.434979,1.655839,2.139115,2.802979,2.940653,2.128751,high
0.374871,0.605779,0.353103,0.568813,1.102635,0.251225,1.695130,0.675708,0.994179,2.345983,2.179712,0.311007,0.553471,1.847749,1.637104,1.229904,2.589679,2.591691,medium
0.285712,0.364594,0.799783,0.867723,0.719086,0.836894,1.517864,0.155740,2.940001,0.499699,1.083272,0.008186,0.189534,2.310814,1.835976,1.739105,1.508827,1.309824,low
0.868599,0.217893,0.554687,0.432116,0.251605,0.689124,0.594161,0.383399,0.959087,0.146735,1.637332,0.942001,2.665353,1.546326,2.425622,1.728646,1.817784,2.076714,low
0.223596,0.988036,0.825932,0.966591,1.178663,0.996301,0.853106,1.822540,2.232558,1.186551,1.961753,0.442241,2.793023,1.101954,1.018534,1.244593,2.724579,2.533249,high
0.963223,0.454002,0.631459,0.452215,1.050282,0.915264,0.371907,0.038598,1.595945,2.561087,1.861029,0.659956,1.760311,1.746557,1.552787,1.196252,1.714827,2.976609,medium
0.012154,0.688274,0.784405,0.142786,0.405987,1.037779,0.222105,1.306864,1.825537,2.264781,2.114954,0.033717,2.521469,2.711259,1.284744,1.769780,2.134808,2.768795,high
0.969879,0.140553,0.598563,0.389435,0.903738,0.279838,1.445524,0.768818,1.180442,1.551468,0.247145,0.681586,0.550713,1.996703,1.255218,2.984143,2.069714,2.728699,low
0.043160,0.485590,0.414141,0.951702,1.593895,1.026283,0.535024,1.345297,2.894469,1.716413,1.066945,0.998135,2.705021,2.929568,2.918080,2.137885,1.802589,1.494920,very_high
0.891143,0.027537,0.957946,0.319721,1.180852,0.484838,1.640119,1.177383,1.715047,0.389678,1.302000,0.094702,1.519085,2.007243,1.753121,2.243563,2.279004,2.675969,medium
0.527701,0.505455,0.541114,0.868098,0.193835,0.368663,1.991217,0.446998,2.813363,2.522045,0.781888,1.823712,0.201495,1.551798,2.054177,1.942038,1.946581,1.338563,medium
0.992965,0.964017,0.605090,0.881251,1.096043,0.129668,0.153240,1.694419,0.022774,2.360879,0.517882,1.706401,0.423938,1.386628,2.467644,2.324661,1.042461,1.396215,low
0.073797,0.384207,0.220488,0.350187,1.405477,1.525305,0.946070,0.983881,1.718012,1.969411,0.416782,0.291107,0.926929,2.389049,1.094895,2.913324,2.628766,1.220233,medium
0.553854,0.038996,0.625651,0.083258,1.585407,0.854884,1.604125,1.645072,2.151561,1.398573,1.099150,1.785029,0.130673,2.072763,1.482045,2.177396,1.226312,2.715193,medium
0.969303,0.030956,0.571608,0.724558,1.258235,1.253287,1.577902,0.812025,2.235241,2.893378,1.480325,2.995962,0.927880,2.207998,2.664296,1.130077,1.928180,1.216509,very_high
0.523098,0.387987,0.184838,0.311512,0.305316,1.455187,1.519994,1.969371,2.714931,2.637096,0.188929,2.833407,0.179791,2.510254,2.723981,1.985781,2.159802,1.276223,very_high
0.629399,0.160025,0.059587,0.782924,1.420347,1.358633,0.697990,1.540979,0.013205,1.933291,2.839374,0.008013,0.708083,2.451807,1.745902,2.985503,2.411012,1.491774,medium
0.695749,0.023352,0.604359,0.442655,1.354684,0.941001,0.907707,1.931900,0.000990,1.115403,2.295730,2.386135,0.797009,1.086727,1.749723,1.774805,1.821593,2.145325,low
0.454541,0.756214,0.763692,0.485267,0.048854,0.775797,1.189937,1.028653,1.416790,1.854067,2.192555,1.060816,2.983107,2.605144,2.513794,2.187762,2.471097,2.760360,very_high
0.627558,0.458523,0.523401,0.777909,0.823495,0.751920,1.947881,0.947382,0.087881,1.726323,0.518582,0.190954,0.706640,2.065407,1.590140,1.213274,1.262700,1.836456,low
0.584314,0.289245,0.226773,0.382363,0.665900,1.280098,0.655095,1.510908,2.923598,1.182726,1.811402,0.887950,0.717559,1.783417,1.234188,1.282361,2.306891,2.092572,medium
0.901158,0.900083,0.666522,0.443127,1.338824,0.989589,1.846288,1.760583,0.666196,0.920022,1.589175,0.965210,2.060367,2.075039,1.515071,2.749363,2.652678,1.332979,high
0.045446,0.116139,0.080106,0.376190,0.432272,1.698264,0.538714,1.928292,1.417994,1.221032,2.947407,1.569733,2.578072,2.224903,1.774689,1.600689,2.778888,1.531892,very_high
0.280963,0.955919,0.441834,0.367341,1.181744,1.749404,1.978149,0.649104,0.183413,1.721734,2.243015,1.983251,1.161166,1.299013,1.104409,1.610903,2.159133,1.267852,low
0.950411,0.313967,0.163367,0.525947,1.826412,0.341121,1.340527,1.597409,1.566145,1.284405,1.727286,2.247167,2.626854,1.834831,1.957361,1.774426,1.625790,1.819838,high
0.890264,0.888404,0.184459,0.808799,1.595605,0.272467,0.927023,0.421291,1.139868,0.790723,2.552438,0.737709,1.020426,1.671172,2.480015,2.932957,1.326713,2.180671,medium
0.455657,0.602943,0.202294,0.361768,1.842915,1.260802,1.226781,1.091149,0.133980,2.282890,0.465283,0.965312,0.591048,1.700818,2.027490,1.168781,1.691118,1.568039,low
0.620133,0.826707,0.386707,0.524255,1.957012,0.602451,0.545062,0.359696,1.005373,1.594402,0.045650,0.925145,0.988916,1.182670,1.143791,2.637528,2.079949,2.691992,low
0.277381,0.984013,0.051150,0.670727,0.021340,0.037141,0.548348,0.694795,1.174308,0.203025,2.070700,1.088211,1.828069,1.319687,1.880299,1.683116,1.392660,2.962477,low
0.188121,0.288405,0.397793,0.269439,1.245483,1.777285,0.227109,1.862717,2.969764,1.104950,0.294934,2.998969,1.101429,1.323664,2.417809,2.698936,2.905030,1.240310,very_high
0.463698,0.961135,0.511707,0.277523,0.825679,0.453802,0.228101,0.292181,0.623658,2.654740,0.346301,2.333830,2.018681,1.746449,1.116193,2.983511,2.794271,1.035720,medium
0.353352,0.389482,0.483294,0.933413,1.719709,1.858561,0.695343,1.264802,1.634339,2.265710,2.234042,2.924971,0.710808,2.788983,1.119694,1.697335,1.065914,2.579554,very_high
0.583656,0.385512,0.382784,0.723535,0.503629,1.434869,1.525711,1.185909,2.961947,0.969740,0.811605,2.079333,2.102979,1.412055,1.741203,1.258713,2.123924,1.381285,medium
0.077735,0.340387,0.839147,0.577187,1.962059,1.525307,1.215942,0.241477,2.376058,2.814549,1.885894,1.218812,1.042315,1.832385,1.389928,1.288751,2.578618,1.706293,high
0.974395,0.541408,0.145327,0.647720,1.227416,0.402923,0.205169,0.651958,2.980103,0.229809,2.752221,1.169233,1.367605,1.623219,2.869562,2.517482,1.490784,1.788462,high
0.986211,0.154145,0.505697,0.029299,1.587075,0.468389,1.704473,1.125963,2.904895,2.883704,0.949424,1.465743,1.673235,2.574767,2.162687,1.289843,2.047792,2.833199,very_high
0.698162,0.553711,0.062041,0.618103,0.171199,1.042536,1.202735,0.374357,1.468619,0.737115,0.651432,1.250609,2.058675,1.100253,1.574651,1.520843,1.811984,2.317676,low
0.536096,0.541705,0.071156,0.509509,0.366916,0.344200,1.921711,1.601247,2.089128,0.027283,0.319689,2.484979,0.716141,1.393087,2.409553,1.408797,1.393093,1.081219,low
0.309528,0.761902,0.573866,0.545750,1.516807,0.610863,1.340371,1.944313,0.331329,1.301424,0.391387,1.395006,2.507837,1.421283,1.749858,1.711357,2.229475,1.029620,low
0.813795,0.833650,0.566018,0.359424,0.043973,0.642925,0.350350,0.429519,1.323446,1.076911,0.186668,0.886843,2.165528,2.985926,1.264231,1.148733,2.987384,1.399136,low
0.684731,0.440441,0.878034,0.081474,1.633756,0.319260,0.947567,0.373824,2.427056,1.617267,0.262927,2.324581,0.702294,2.141550,1.474464,2.713485,1.730575,1.636344,medium
0.162617,0.302333,0.557874,0.193339,0.027898,0.410366,1.296995,0.909870,1.516006,2.390319,1.296014,2.563261,2.924924,1.277917,2.285495,2.720293,2.104758,1.969048,very_high
0.910927,0.259335,0.959791,0.950745,1.314238,1.577104,0.056529,1.495531,2.108097,2.527292,0.962595,1.261287,1.994391,1.544398,1.103752,1.825866,1.655709,2.675679,high
0.822537,0.194624,0.048695,0.408700,0.730188,0.334392,0.029821,0.563201,2.237254,1.203690,2.119682,2.003426,1.357281,1.335644,1.545378,2.224175,2.753897,1.629636,medium
0.949800,0.057648,0.098008,0.466683,1.222990,0.056915,0.258806,0.039760,0.760407,1.289537,2.610725,0.176414,0.472582,1.249209,1.416623,2.283903,2.729205,1.753074,low
0.725720,0.342448,0.044066,0.052710,1.392063,1.258710,0.503329,1.082441,2.627098,0.444533,2.354320,1.588395,1.599663,2.594364,1.402270,2.498516,1.357547,1.658676,high
0.613415,0.270248,0.185277,0.037566,0.684950,1.951966,0.859098,1.913201,1.379467,0.142643,1.591912,0.134943,0.494328,1.991505,2.365525,2.041380,2.799898,1.017931,low
0.418243,0.966417,0.541270,0.717181,0.215925,0.662428,0.974881,0.782554,0.630555,1.923645,0.307326,0.087573,1.288475,2.262420,2.651634,2.020672,1.303017,2.910403,low
0.932728,0.557709,0.645572,0.538095,0.139292,0.237311,0.276055,0.840269,2.596248,0.193313,2.129302,1.838775,1.226138,1.662502,2.431733,2.262608,1.190880,1.277992,low
0.866064,0.347277,0.045585,0.508706,1.177872,1.140775,1.346783,1.937803,1.253456,2.201490,1.088486,0.910006,2.159819,2.107390,2.291456,2.406097,2.305869,1.575335,very_high
0.045219,0.580468,0.945971,0.243125,1.041311,1.812708,1.192276,1.389215,2.250937,1.617270,0.256951,2.227611,0.577150,1.515138,2.832904,1.693381,1.771808,1.258607,medium
0.026367,0.139197,0.842165,0.744751,1.484402,1.568124,0.588928,1.438344,1.644099,0.595749,2.527399,2.688248,2.465614,1.616073,1.116785,1.660741,2.061481,1.981086,high
0.376463,0.444044,0.296612,0.168237,1.019471,1.245032,0.027320,1.125404,1.145615,1.618569,1.014650,0.418174,0.978397,2.304476,1.334966,1.539437,2.305142,2.864332,low
0.810553,0.626234,0.077188,0.189935,0.844892,0.630113,0.155296,1.949218,2.429629,0.548993,0.654746,2.173569,1.331966,1.300700,1.828814,2.097693,1.105674,1.201401,low
0.987276,0.488898,0.169887,0.460712,0.796174,1.083760,0.783390,1.377733,1.753410,1.316212,2.614356,1.543560,2.317023,2.234444,1.744903,1.720311,1.585906,1.881794,high
0.150417,0.401779,0.126944,0.286280,0.052894,0.182490,0.307949,1.790066,1.171686,2.398681,2.706402,0.336358,1.876177,2.704470,1.836103,2.080627,1.921813,1.044750,medium
0.594131,0.993848,0.123284,0.247463,0.671114,1.357891,0.753639,1.398758,0.328794,1.385758,1.016913,1.954778,0.924076,1.240846,1.412910,1.811970,1.533175,2.541796,low
0.380891,0.880315,0.518562,0.645238,1.952040,1.450192,1.256365,1.470232,2.686336,0.446098,1.064404,1.828400,1.158609,2.794923,1.299007,2.673468,1.097943,2.282452,high
0.969914,0.623406,0.245847,0.650972,1.747111,1.930063,1.094475,0.580822,0.106409,2.171486,1.738886,1.546926,0.917360,1.158891,2.018386,1.146260,1.173353,2.399397,low
0.842119,0.569377,0.358140,0.824517,0.658756,0.520795,0.462352,0.606957,2.589562,0.560305,2.200324,2.779414,1.784311,1.697818,2.856105,2.144421,2.603496,1.944673,very_high
0.838329,0.620660,0.989505,0.417709,1.175591,0.036913,0.687645,1.565969,1.079885,2.215650,0.189448,1.563239,0.997874,2.221019,1.783939,2.151248,2.822774,2.815266,high
0.468693,0.201312,0.684314,0.073085,1.694593,1.091217,1.228062,0.593413,1.918016,1.438057,1.780031,2.971545,2.177093,2.118830,1.086706,1.767435,1.304467,1.819115,high
0.414820,0.395138,0.948981,0.273666,0.882549,1.413581,1.721710,1.125540,2.766599,1.361225,2.858460,1.527686,1.739361,1.192782,2.412335,1.842042,1.498524,2.028170,very_high
0.273407,0.039460,0.142557,0.980005,0.035916,1.580815,1.506427,0.498705,0.455120,2.554305,0.786282,0.347556,0.437120,2.597826,1.582210,2.600263,2.304499,2.390578,medium
0.056375,0.475546,0.382139,0.596259,0.149021,0.387478,1.106800,1.633967,1.700851,2.125811,2.726482,1.411414,0.930806,2.946307,1.490190,1.561347,2.908544,2.041121,very_high
0.864722,0.543025,0.554732,0.709737,1.020785,0.523506,0.724586,0.221003,2.293299,0.098732,2.850505,0.546986,0.664342,1.362457,1.648516,2.742808,1.599179,1.378671,low
0.812901,0.227750,0.076758,0.007358,1.938879,1.025182,0.730103,1.658893,2.272751,0.888523,0.807461,1.791400,1.170940,2.790262,2.447631,2.792687,2.710427,1.634141,very_high
0.999718,0.964029,0.004187,0.518206,1.386419,0.661202,1.758835,1.205460,1.576896,2.612762,2.262606,2.079397,1.547952,2.113619,2.637639,2.301239,2.012049,1.184589,very_high
0.996637,0.909455,0.670434,0.037529,0.141832,1.721023,0.078487,0.373819,1.874218,0.054979,0.716325,1.405306,1.520289,2.871868,2.176112,2.545715,2.913117,1.865227,high
0.555432,0.722143,0.641820,0.569230,0.378722,0.947520,1.975965,1.084071,2.272581,1.635760,2.212833,0.293109,2.263571,1.352172,1.644958,2.225895,1.272517,2.218784,medium
0.768987,0.533387,0.410789,0.920771,1.542646,1.599157,1.328751,0.564998,2.523083,2.183477,2.392260,1.405924,0.567516,2.584043,1.620956,2.050518,2.947345,1.237060,very_high
0.944766,0.869969,0.489644,0.968419,1.682880,1.161240,1.362275,0.646935,2.285439,1.865568,0.741617,0.244363,2.839418,1.119563,1.248617,2.933356,1.881957,2.261174,high
0.849647,0.130652,0.415443,0.540553,1.235389,1.546180,0.075996,0.703056,1.062015,2.281597,2.147609,2.046378,1.028535,2.766393,2.866602,1.565310,2.905877,2.785744,very_high
0.247348,0.790510,0.024005,0.458205,1.288846,0.665346,1.211059,0.126638,2.990179,2.177076,2.436314,2.371105,0.900747,2.348319,2.276279,1.308302,1.917380,1.675447,very_high
0.450544,0.124821,0.335372,0.945017,0.056675,1.662833,0.969556,1.971923,1.303508,2.076092,1.075737,2.887141,2.055536,1.740510,1.053949,1.574971,2.060164,1.444066,medium
0.129159,0.794211,0.177082,0.673610,1.657061,0.549145,0.211558,0.063069,0.073394,2.464620,0.503108,0.446406,2.416550,1.380934,2.324734,2.229251,2.609550,2.786012,medium
0.954051,0.275768,0.098424,0.064899,1.576550,1.092198,0.555844,1.324994,1.087851,1.937072,0.275894,1.597261,1.135415,2.633066,1.894307,1.370367,2.445257,2.383890,medium
0.606175,0.877091,0.956720,0.465726,0.518070,0.428014,1.780629,0.742455,0.383349,1.207255,1.726145,1.702612,2.240541,2.206483,2.945116,2.817628,2.239207,1.210790,high
0.228643,0.944042,0.599360,0.240245,1.417353,0.951053,1.099977,1.292021,0.364328,1.415727,2.934294,2.767430,2.651208,1.720832,2.638138,1.822049,1.833960,1.816224,very_high
0.671701,0.148796,0.728656,0.469804,0.429709,0.636350,0.826833,0.712497,0.844605,2.150174,2.468851,1.881830,2.300411,1.887672,1.342632,2.699926,2.584877,2.348179,very_high
0.618128,0.462676,0.315364,0.455466,0.080660,0.533407,0.145364,1.347501,0.160126,2.628918,1.307519,0.436529,0.102589,2.653085,2.440222,1.498473,2.896457,2.148768,low
0.358163,0.980987,0.393147,0.582145,0.402273,1.933970,1.428243,1.458471,2.065537,0.816656,1.609863,1.309054,2.482107,1.677854,1.971132,1.626337,1.019622,2.237094,medium
0.113558,0.483407,0.236924,0.356770,0.357258,0.320148,1.405702,1.381105,0.221967,1.026230,0.838584,1.964288,2.323443,1.179265,1.374090,1.118447,2.175690,2.134270,low
0.671573,0.863548,0.096966,0.164270,0.675496,1.574652,1.228087,0.227924,0.609869,2.792218,0.489198,2.100853,2.007871,2.822564,2.397480,1.515535,2.731962,2.596123,very_high
0.520308,0.588732,0.179032,0.503719,0.836899,1.968330,1.020525,1.313786,0.278699,1.735535,1.446243,2.589222,2.280067,1.774687,2.094775,1.980628,2.306225,1.640854,high
0.772318,0.375330,0.797514,0.830203,1.017078,0.039803,0.867569,0.559975,0.189503,0.536885,1.390505,0.541521,2.938276,1.696775,1.060748,2.892274,2.601659,2.416925,medium
0.520164,0.285784,0.677546,0.664012,0.953508,1.398055,1.186542,0.057603,0.803255,1.991085,1.565790,2.854626,1.293339,1.408799,2.293176,1.777806,2.790122,2.982159,very_high
0.852182,0.203223,0.546929,0.338368,0.541349,0.505824,0.466791,0.829661,1.715697,2.972286,2.858414,0.177418,0.201670,2.794845,2.269974,2.279488,2.501902,1.779918,high
0.551907,0.761798,0.475090,0.935523,0.058341,0.080976,1.882518,0.867086,2.894057,2.470361,1.811686,2.951286,1.382670,1.435011,1.288170,1.855420,2.434035,2.582097,very_high
0.560938,0.386541,0.922434,0.912208,1.210203,0.805779,1.177589,0.934348,2.626670,2.237223,1.817316,2.573301,0.139301,2.273346,1.697975,1.093584,2.929492,1.492218,high
0.876654,0.511275,0.072735,0.209348,0.791490,1.870436,0.622385,1.409648,2.627802,0.624140,0.384074,1.980818,0.882751,2.761530,2.171798,2.007065,2.727369,1.563793,high
0.403483,0.492325,0.280601,0.039418,0.597344,0.023530,0.899360,0.617688,0.528201,2.628419,2.989467,2.204987,1.760639,1.069827,1.277566,1.131827,2.630756,2.869728,medium
0.134015,0.577279,0.349938,0.741309,1.733882,1.175771,1.611370,0.630561,0.794722,1.577367,2.318535,0.218076,0.928869,2.657583,2.705447,2.767400,1.172807,1.051877,medium
0.028783,0.865577,0.782426,0.827610,1.493487,1.002793,0.323232,0.121105,0.229180,2.667870,2.631610,0.124440,2.056186,1.821199,1.054972,2.506074,1.478060,1.434855,low
0.755137,0.980739,0.992515,0.967865,1.715531,1.746768,0.585671,1.373642,2.335405,0.989483,1.242901,0.305297,2.465959,2.315949,1.205675,1.757303,2.113512,1.965841,high
0.620310,0.407584,0.240671,0.889836,0.989966,0.168003,1.359016,1.135652,0.209449,0.186153,1.506384,0.262079,1.261318,1.744809,1.232214,2.280437,2.419120,1.803695,low
0.704080,0.827519,0.874307,0.600535,0.261863,1.363052,0.630978,0.698850,1.670087,1.427928,1.566251,1.642144,2.700414,2.391033,2.056214,1.224056,1.606430,2.258339,high
0.212964,0.764528,0.830623,0.530052,1.392443,1.360219,1.585003,1.410378,0.743627,0.809513,0.582284,0.646332,0.239517,1.508590,2.240228,2.405110,1.186656,1.385444,low
0.136371,0.573529,0.224657,0.027841,0.412148,1.338160,0.260907,1.074715,0.730337,2.145688,2.068467,2.580617,2.520339,1.043861,1.807482,2.645465,1.622198,1.141094,medium
0.014545,0.956047,0.399333,0.246656,0.882459,1.884669,1.525372,0.938490,2.972175,2.871320,2.708930,1.337246,2.485719,2.895575,1.577334,2.643491,2.542058,1.738667,very_high
0.350588,0.200475,0.409673,0.459615,0.130002,1.646175,0.136703,1.022649,2.270339,2.072922,0.491117,2.086531,0.965982,1.032736,2.618635,1.568555,2.754802,2.048710,medium
0.589918,0.109264,0.978221,0.628504,1.650617,0.083945,0.025185,1.272696,2.510818,2.660802,0.258955,1.958619,0.896146,2.648199,1.136572,1.527492,2.825807,2.124004,high
0.392244,0.853962,0.180892,0.557252,0.251881,0.942166,1.796447,1.320005,1.715948,1.359072,2.214657,0.959559,0.915285,1.338275,1.560584,2.042795,1.757733,2.202987,medium
0.437475,0.439150,0.799158,0.742636,1.806195,0.795906,1.162678,0.577916,2.613043,2.314922,0.819605,0.729503,2.434181,1.784440,1.078231,2.935544,1.745077,2.097324,high
0.904159,0.846969,0.334193,0.279767,1.728461,0.620294,0.703654,0.281487,1.936472,2.529130,1.871588,1.027369,2.494960,2.644985,1.027780,2.841046,1.813415,1.491504,high
0.348255,0.893090,0.730870,0.564953,0.929166,0.902673,0.465189,0.313268,2.838521,2.132627,2.087275,2.389975,0.989167,1.411864,1.706760,1.719277,1.751619,2.529099,high
0.513989,0.062458,0.420011,0.088142,1.488736,0.768388,1.233772,1.278782,0.844016,1.523332,0.965732,1.758831,1.777771,2.731415,1.389647,2.559659,2.332393,1.175561,medium
0.783653,0.883465,0.578360,0.413666,1.238890,0.864668,1.018004,1.745747,1.785959,1.877598,2.445434,0.760616,0.416800,1.995518,1.536732,2.842636,1.716647,1.396708,medium
0.396543,0.448319,0.832612,0.750161,1.606151,1.958524,1.983196,0.818993,2.070394,2.101521,1.649967,2.453539,1.406336,1.732307,2.641894,1.521853,1.040688,2.478756,very_high
0.622087,0.510432,0.804166,0.693401,0.863610,0.177266,1.966432,0.339040,1.178812,0.759253,2.606998,0.164278,2.996379,2.324875,1.325960,2.660591,1.878049,1.559452,medium
0.862364,0.626593,0.866423,0.990643,1.571617,1.844462,1.270049,1.513205,2.639124,2.428738,2.289881,2.097550,0.476517,1.682779,2.560467,1.535791,1.448304,1.986947,very_high
0.949521,0.926383,0.059617,0.277891,0.924914,0.960473,0.885741,1.664979,2.939409,2.850974,2.605727,1.317302,2.842688,1.694577,2.350101,1.686564,1.057614,1.654395,very_high
0.147073,0.019116,0.692051,0.498189,1.881932,1.247484,0.982282,1.761165,1.481308,1.395718,0.060484,2.193871,2.472764,2.467053,1.652891,1.397641,1.941686,2.013962,high
0.926588,0.476843,0.139987,0.329530,0.972744,1.660366,1.364958,1.213663,1.171922,2.103202,0.730519,2.782384,2.916644,1.619664,2.093112,2.014160,1.411909,1.693312,high
0.492116,0.687722,0.415819,0.440603,0.925239,0.720926,0.203149,1.721457,1.415814,2.211078,0.270024,2.250102,0.538736,1.401545,1.888871,2.686622,1.905484,2.988416,medium
0.258244,0.722707,0.548588,0.856950,1.570144,0.860844,0.656704,0.030830,2.558210,1.986743,1.326249,1.325896,0.640555,2.615292,1.256791,2.056104,1.555500,1.714955,medium
0.459136,0.692532,0.402739,0.684209,1.643155,0.819037,0.150544,0.214472,1.936405,1.641345,2.669880,0.452927,0.050602,2.610742,2.814371,1.246880,2.207418,2.254099,medium
0.980033,0.134435,0.519612,0.882441,1.108978,0.749462,0.146722,0.185152,0.134317,2.644944,1.402621,2.419053,2.174105,1.995171,2.139236,1.503552,2.981755,2.776686,very_high
0.492618,0.299396,0.996526,0.203511,0.359596,1.851059,0.391678,1.425209,1.626510,1.346780,2.549139,1.382117,1.932284,2.053311,2.760480,2.125724,2.094464,2.275870,very_high
0.328752,0.358716,0.135217,0.873361,0.935516,1.657860,0.970507,0.139164,0.051900,0.183309,0.981535,0.225937,0.534196,2.392153,2.647653,2.166375,2.293792,2.131715,low
0.633401,0.804437,0.675456,0.059762,1.936145,0.218000,1.569549,0.992729,2.335606,2.533669,1.018710,2.157166,2.373435,2.018549,1.159552,2.153812,2.838552,2.138459,very_high
0.240146,0.278760,0.396001,0.888599,1.505972,0.216247,0.970992,0.945414,0.984937,2.021944,2.686685,0.875556,0.897587,1.834080,1.414541,1.154007,1.748001,1.992921,low
0.075863,0.210705,0.133010,0.329074,1.622325,0.855739,0.670953,0.621407,1.416022,2.547776,1.277451,0.146665,0.404987,2.989788,1.290522,2.507392,1.333097,2.615161,medium
0.128880,0.957448,0.158737,0.314588,0.065651,0.197315,0.164706,1.740810,2.396034,0.415642,2.369296,2.708253,1.267688,1.295281,2.661559,2.818856,1.565595,1.100848,medium
0.128046,0.008863,0.949273,0.512089,0.935719,1.238186,1.100591,0.340866,0.139346,0.092259,0.709931,1.449303,0.272910,2.185456,2.724893,2.021038,1.805590,2.770260,low
0.151903,0.997821,0.879601,0.940690,1.293242,0.287383,0.542537,0.704926,0.475625,2.803124,2.846402,0.842883,0.789731,2.771726,2.055943,2.437659,2.290035,2.172584,very_high
0.138827,0.676821,0.907042,0.047781,1.660065,1.044747,1.229868,1.548343,1.193881,0.443185,1.723735,2.149160,1.114000,2.374430,1.208356,2.828031,1.009176,2.697746,high
0.640875,0.828469,0.991533,0.352231,0.098547,0.014440,1.954375,0.060845,0.689775,2.428957,2.277971,2.657707,2.555593,2.761847,1.271233,2.285246,2.706766,1.020785,very_high
0.181880,0.294619,0.208315,0.856572,1.704878,0.633193,0.222629,1.345901,1.013704,2.469630,0.268547,0.000921,2.377646,1.672669,2.627098,2.348651,1.152188,2.738553,medium
0.345667,0.014315,0.355439,0.396054,1.096802,1.354381,0.424251,1.632795,2.994524,2.126116,1.477993,2.063557,1.328263,1.543986,2.858380,2.442809,2.801310,1.240275,very_high
0.896788,0.737870,0.669219,0.199157,0.394628,0.968078,0.946189,1.864536,2.476243,0.393787,2.703115,2.301035,2.173725,2.702545,1.398951,1.521005,2.898869,2.442436,very_high
0.473962,0.834145,0.483803,0.424794,0.634510,1.956539,1.937228,1.752593,2.651705,2.002196,2.631116,0.629782,1.705949,1.788229,1.022275,2.165356,2.980206,1.833043,very_high
0.667558,0.740476,0.418390,0.385553,0.563859,1.748208,1.543620,0.638768,2.811164,2.667260,0.140442,1.468871,1.022526,2.419365,1.661906,2.684350,2.619020,2.362145,very_high
0.172320,0.142850,0.357811,0.915416,1.061718,0.718142,1.796458,1.172728,1.022808,1.276595,0.911095,0.267858,2.177623,1.295497,1.060999,1.592325,1.283711,2.256379,low
0.192289,0.753428,0.593781,0.761934,0.103371,0.090973,0.667430,0.154587,0.891231,1.240551,1.329960,2.240250,2.050497,2.511676,2.655950,2.794341,2.412334,1.326793,high
0.040869,0.768923,0.575593,0.505116,0.317072,1.691253,1.984077,0.515740,0.702187,1.328575,0.516794,2.542368,1.857283,2.097965,1.983025,2.240764,1.406643,2.029228,medium
0.168935,0.658541,0.161458,0.988371,1.625386,1.822469,0.205666,0.188445,2.490351,0.246816,2.189995,0.324560,1.853867,1.537223,2.283722,1.846350,2.794256,1.554461,medium
0.278590,0.766116,0.471740,0.465278,0.265208,1.641255,0.105946,0.630375,2.038656,2.676077,0.553536,2.449381,2.048946,1.989008,1.822970,2.246366,1.633212,2.120874,high
0.177010,0.845921,0.553472,0.058238,0.466793,0.255900,1.711205,1.750374,0.708516,2.607549,1.039919,2.314711,1.153637,2.393887,1.691015,1.803720,1.653592,2.476007,high
0.088703,0.613604,0.570287,0.262274,0.906741,1.995830,1.854530,0.694334,1.130981,2.993728,1.989842,1.040740,2.607227,1.023773,1.444401,2.676071,2.835307,1.162517,high
0.120636,0.088605,0.210107,0.436070,1.034242,0.517168,0.181171,1.123796,1.520135,1.755549,1.446268,2.070869,0.486924,2.274934,2.541065,1.964637,1.026462,2.031525,medium
0.460779,0.487628,0.742271,0.156903,1.527221,1.448410,0.226855,0.866762,1.584420,2.253575,2.215713,0.000144,2.651656,2.083182,2.391095,2.802427,1.387932,2.235260,very_high
0.206334,0.077649,0.025199,0.947565,0.894665,1.816070,0.066348,0.917833,2.666183,0.608016,2.883624,2.795393,1.026846,1.440572,1.721458,2.019616,1.843865,1.590735,high
0.364270,0.407543,0.354832,0.766849,1.579729,0.471374,0.209015,1.939144,1.141698,2.002586,0.349640,1.651150,0.375095,2.505962,1.642232,2.320737,2.401443,2.906007,high
0.503417,0.407106,0.780213,0.268287,1.236693,1.816517,0.418840,0.592309,2.725572,1.949199,2.128703,1.861017,1.800082,1.606922,1.002486,2.995489,2.295132,2.040606,very_high
0.690395,0.066010,0.563893,0.590805,0.226199,0.618963,1.940153,1.254649,1.324103,2.703626,0.691032,1.993978,1.127960,1.553722,1.127104,1.293932,2.338824,1.365034,low
0.039312,0.348821,0.261162,0.721449,0.312663,1.952826,1.335720,0.840125,2.239118,2.492378,1.243430,1.684107,2.446499,1.942437,2.246511,2.473458,2.760044,1.215577,very_high
0.799410,0.110998,0.694953,0.941279,0.874067,0.562520,1.557106,0.122292,2.790763,2.815399,0.098588,2.570292,1.292356,2.352299,2.029215,1.277744,1.242061,2.083319,high
0.627900,0.808235,0.567391,0.881635,0.793779,1.906872,1.552279,0.978662,2.722727,2.606500,0.407722,1.829105,2.005688,2.857692,1.869606,2.677733,2.044323,1.750477,very_high
0.081759,0.947688,0.796244,0.515192,1.487089,0.107089,1.070147,1.626687,0.170859,2.606082,0.959332,2.723280,0.924774,1.282714,2.655004,2.192907,2.450955,1.385094,high
0.873579,0.072316,0.735025,0.774653,1.161474,1.418544,1.594978,0.197506,0.617113,0.191170,1.025957,1.746995,0.628357,1.792936,2.007796,2.876319,2.272237,1.061397,low
0.920872,0.955115,0.610108,0.562145,0.776266,1.064222,1.191615,0.139184,1.430716,2.537886,2.698756,0.513367,1.164147,1.133979,1.768987,2.731913,1.896628,2.133200,high
0.061078,0.522577,0.488178,0.552704,0.341521,0.955754,0.629092,0.307263,1.294663,1.822435,2.225439,2.740688,1.820424,2.517101,1.322513,1.149744,1.034229,2.197200,medium
0.276878,0.299566,0.133182,0.114742,0.453674,0.446989,1.122220,1.528800,1.922675,1.141333,2.916549,2.044882,1.970840,1.895466,2.641376,1.274605,1.120905,1.283605,medium
0.806201,0.076862,0.261333,0.126138,1.151002,1.411192,1.067017,1.447991,2.834127,0.169544,1.797215,2.097717,1.734620,2.413858,2.152497,2.202342,1.237883,2.203476,high
0.748260,0.500624,0.419099,0.529534,0.846878,0.381619,1.646906,1.130036,0.337214,2.033021,0.725141,2.956445,2.964167,1.644389,1.184920,2.036629,1.686456,2.903946,high
0.184521,0.794516,0.599299,0.268862,1.029855,1.105684,1.963454,0.936453,1.355576,0.984605,0.982965,0.225590,2.073271,2.688634,2.297797,1.337130,1.235307,2.956591,medium
0.209349,0.707086,0.513708,0.021037,0.341355,0.506491,0.822085,1.776652,0.577233,1.403329,0.959508,1.285778,2.794559,2.069656,1.850141,1.258718,1.852165,2.776986,medium
0.370472,0.050226,0.288185,0.722839,1.325813,1.911243,1.526781,1.533396,2.682323,2.045185,0.979483,0.717286,0.353800,2.887216,2.622772,2.127982,1.357284,2.614157,very_high
0.484523,0.072902,0.006464,0.032487,1.705077,0.057262,0.199526,1.623885,2.893741,2.735324,2.018893,1.891279,0.184119,1.157629,2.837829,1.097843,2.558332,1.418736,high
0.618255,0.402873,0.496239,0.595277,0.515879,0.399457,1.553663,1.626525,1.436105,2.476311,1.592424,2.420435,0.932984,2.028554,2.200932,2.747471,2.742975,1.312870,very_high
0.368914,0.295290,0.285626,0.539194,0.983028,0.484621,0.742834,1.285434,0.312031,1.351791,1.156273,2.898932,0.409767,2.532910,2.463226,2.614166,1.779295,1.889895,medium
0.462535,0.232384,0.734608,0.968815,1.951055,0.828136,0.078780,0.916029,2.355884,1.163349,0.447269,1.363788,1.577606,2.200305,1.113182,2.570740,2.022664,2.239264,medium
0.747471,0.281004,0.023946,0.484213,0.666483,0.465460,0.726492,1.729356,2.091424,0.719339,0.066417,2.358655,1.556944,1.046388,2.120511,1.031994,2.906992,2.701357,medium
0.036683,0.803483,0.584828,0.063601,1.190093,0.982698,1.221286,1.852015,1.064012,1.117280,0.656504,2.751155,1.725141,2.944677,2.510680,1.095282,2.071016,1.463926,high
0.252437,0.929228,0.941474,0.551688,0.180391,1.744931,0.238500,0.047612,2.662222,0.333139,0.322414,2.049976,2.235684,1.596527,1.993524,2.099678,2.990146,1.959296,medium
0.713350,0.405103,0.174409,0.841096,1.212030,1.424127,1.848069,0.103110,2.927496,2.913317,2.356335,0.728198,2.913989,1.498556,2.187100,2.988851,1.284262,2.294880,very_high
0.895207,0.906111,0.471649,0.996849,0.179264,1.159924,0.155345,1.917487,1.673562,1.721752,0.337494,1.823562,2.634776,1.971320,2.797896,1.684632,2.724453,1.891188,very_high
0.511677,0.321496,0.091422,0.430343,1.918471,0.178006,1.860013,0.554321,1.697184,0.383418,2.172685,2.909856,0.355102,2.084316,1.396199,1.688750,1.994406,1.908387,medium
0.532113,0.476437,0.625682,0.320299,1.431325,1.387984,1.414275,1.746739,0.892541,1.058418,1.156976,2.962661,1.015541,2.532576,1.196493,1.268556,1.045428,1.450234,low
0.107172,0.226029,0.550532,0.906653,1.576320,0.332829,0.659424,0.777590,1.753518,1.641117,0.220135,1.927079,0.767469,1.786547,2.381287,2.348672,2.944446,2.973322,high
0.447412,0.640476,0.407366,0.191242,1.408209,1.572735,0.781501,0.238200,1.318927,1.598657,2.438190,2.660963,0.530452,1.879921,2.645698,2.293353,2.930096,1.950387,very_high
0.532617,0.978981,0.521377,0.615429,1.179458,0.500114,1.481619,0.160886,0.906573,0.106510,1.738892,0.601048,1.634175,2.069920,2.700980,1.202645,1.766542,2.065484,low
0.242471,0.603493,0.896575,0.405714,0.899826,0.834097,1.202942,0.313016,0.201556,2.852523,0.707285,0.738236,1.659793,1.788774,2.283289,1.934825,2.908284,1.437119,medium
0.269243,0.357814,0.196294,0.041082,1.716747,0.700940,1.343286,0.499786,0.758124,0.826127,2.684044,2.858663,0.681734,2.829096,2.666427,2.334150,1.282019,2.028273,high
0.377284,0.647817,0.022565,0.347288,1.913671,1.717628,0.778329,0.977037,0.593564,0.048554,0.135775,0.405706,2.135692,2.702504,2.401328,1.987032,2.360220,1.510699,low
0.020071,0.122921,0.861665,0.265229,0.998072,0.253089,0.975627,1.402996,1.626126,0.229332,0.605459,0.573319,2.198743,1.909947,1.174754,2.348727,1.383858,1.404673,low
0.322079,0.888659,0.577117,0.686091,1.863070,1.131290,1.979735,1.972797,1.805010,1.740585,2.256141,1.261646,0.062940,1.000390,2.524087,2.632541,1.493294,1.551445,high
0.211448,0.503084,0.890658,0.948790,1.166666,0.284123,0.427846,0.883013,1.825715,0.413357,2.128134,1.768753,1.187273,2.801869,1.358719,2.371631,2.558675,1.005519,medium
0.327497,0.449350,0.596945,0.268047,1.076768,1.409592,0.835712,1.036370,1.164543,0.125174,0.867815,1.811452,2.670422,1.248673,1.473219,2.232228,1.754716,2.140302,low
0.119762,0.585865,0.810161,0.811466,0.908965,1.810156,0.583646,1.043631,1.263689,1.138879,0.186075,0.875928,1.560956,1.489025,1.789301,2.707181,1.014255,1.774960,low
0.890527,0.624784,0.429673,0.055360,0.418576,0.869215,1.530223,1.078869,2.502715,1.868284,2.574234,2.761842,1.042883,1.304723,1.629134,2.801177,1.828477,2.797378,very_high
0.593592,0.071776,0.749860,0.538121,0.007439,0.976185,1.528025,1.035481,1.428698,0.335519,0.941093,2.745300,0.761028,1.359631,1.643303,1.777773,1.456139,1.081414,low
0.679102,0.682617,0.913041,0.070550,0.483012,1.854846,0.584891,0.017550,2.963320,0.939983,0.587140,1.176204,0.730064,2.605755,1.338519,1.346500,2.366660,1.086401,low
0.789171,0.241932,0.572123,0.934033,1.019446,1.041983,0.162781,0.003450,1.318852,1.253282,1.548185,1.302875,0.299304,2.159003,1.587742,2.635721,1.388897,2.771747,low
0.498442,0.713953,0.180785,0.766351,0.759920,0.975197,0.022865,0.195333,1.948743,0.478380,2.730682,2.107491,2.451679,2.912190,1.039325,1.427506,2.684507,1.253289,medium
0.086920,0.822535,0.268798,0.657950,0.896970,1.156658,0.854901,0.203113,0.151089,1.518222,0.130640,1.988988,0.259972,1.462907,1.945822,2.857901,1.534186,1.004320,low
0.537107,0.803959,0.198645,0.823896,1.961296,1.378459,0.820675,1.409794,1.960020,0.255642,2.297412,1.146891,0.876884,1.971270,2.537182,1.045756,1.786057,1.357828,medium
0.586841,0.552501,0.246857,0.647520,0.700545,0.213767,1.976780,0.409832,2.554279,0.139555,1.717420,1.242733,0.137027,2.954857,2.724495,2.842542,1.596074,2.647752,high
0.745439,0.520170,0.306415,0.968944,0.904366,1.642221,0.939604,1.789428,2.827374,1.559506,1.276347,1.044117,2.344160,2.652887,2.640857,2.178366,2.287847,2.605428,very_high
0.431660,0.142876,0.555134,0.713958,0.267031,0.871010,0.512837,1.857213,2.991962,0.743691,2.232241,0.706155,0.117851,2.457231,1.832915,2.549484,1.202327,1.680264,medium
0.127580,0.775346,0.587992,0.924659,0.095915,0.144697,1.782459,1.951787,0.846536,0.286121,2.897473,1.374415,0.924903,1.377950,2.460853,1.796985,1.956199,2.336062,medium
0.283776,0.271409,0.426500,0.517132,1.550819,1.572365,0.982136,1.878163,1.726110,1.271738,0.687619,2.059302,1.719892,2.538811,1.575782,2.983433,1.668910,2.014499,very_high
0.363082,0.496695,0.615421,0.117064,1.141366,0.753900,1.198351,0.543777,1.352154,2.745422,0.430942,2.225900,1.228684,1.695130,1.111125,1.455103,2.768276,2.809470,medium
0.645917,0.284274,0.081575,0.528178,1.521410,0.200735,0.191337,1.019554,1.691452,2.172577,2.738645,2.336621,0.846813,2.061074,2.351943,1.528687,1.146824,1.112847,medium
0.570778,0.133828,0.087788,0.126873,0.299726,1.267558,0.765833,0.350910,0.472359,2.446848,2.006859,1.124196,0.825567,2.218322,2.297592,1.102865,2.659390,2.626358,medium
0.356097,0.629558,0.171829,0.592493,1.143658,1.760263,1.888447,1.612419,2.568449,2.615742,1.313958,2.293908,2.393371,2.218727,2.603259,2.880947,1.335361,1.341197,very_high
0.986515,0.054332,0.518077,0.482493,0.507285,1.775507,1.179011,1.776863,2.728707,2.917883,1.719779,0.019549,2.921934,2.453047,2.232212,1.912059,1.177155,1.783242,very_high
0.605775,0.748645,0.213995,0.622575,0.456124,1.915327,0.689004,1.702578,1.348985,2.289740,2.236842,1.431150,1.044123,2.323404,1.313783,2.349705,1.404646,1.383914,medium
0.237227,0.317587,0.283284,0.010047,0.023052,1.735411,1.251334,0.866734,0.841290,1.825224,2.319096,2.381713,0.117437,1.136742,2.706325,2.374881,1.205306,2.405229,medium
0.101782,0.000135,0.400313,0.194840,0.260681,0.004282,1.820822,1.517348,0.422500,1.096278,2.759683,1.890134,0.109697,1.914694,2.254506,2.749004,2.041968,2.356652,medium
0.152859,0.511129,0.811866,0.491330,0.618536,0.760482,0.547981,0.195158,2.051294,0.544930,1.280528,1.422189,2.277640,2.328043,2.615219,2.329851,2.976430,2.095795,high
0.245958,0.046852,0.013862,0.950504,0.233758,1.637085,1.010233,0.080490,0.936696,2.059980,0.880233,1.933926,1.657109,1.591986,2.548214,2.124042,1.068655,2.396326,medium
0.160681,0.276170,0.649379,0.383609,1.971717,0.732506,1.917381,1.506473,2.728616,2.984850,1.918993,2.720838,2.350778,1.626113,1.595729,2.420637,1.922257,2.279130,very_high
0.186567,0.706976,0.668877,0.424372,0.617265,1.203097,0.344792,0.850711,2.013037,1.402076,1.247184,1.699145,2.092491,1.249135,1.149106,2.501942,1.772141,2.552884,medium
0.285095,0.062690,0.798656,0.714696,0.260648,1.212634,1.439328,1.991099,1.937056,2.171038,1.783795,2.399359,2.722519,1.837230,1.353009,1.371856,1.679213,1.478813,high
0.173374,0.839338,0.932753,0.603793,0.398165,0.730051,1.228962,0.194508,1.678206,1.485277,1.259957,2.942228,2.657473,2.973661,1.185725,1.219334,1.663727,1.857825,high
0.896765,0.003820,0.020138,0.298926,1.175406,1.808948,1.359350,1.711255,0.137329,1.295800,0.458987,2.116705,2.364982,1.570639,1.486825,1.149698,2.790026,1.303253,low
0.080234,0.246824,0.153784,0.410816,0.128087,1.006457,0.702439,0.959966,2.795767,1.230917,1.408280,1.719977,1.425567,2.062874,1.919065,1.748107,1.037952,1.859187,low
0.524511,0.740904,0.886171,0.217700,1.724868,0.929568,0.627759,1.654300,1.883812,1.513874,2.072753,0.112458,0.924379,2.486475,2.813621,1.996000,2.549833,2.403384,very_high
0.410397,0.316270,0.458519,0.966021,1.922999,1.995027,1.368419,1.634255,2.982186,1.100687,2.397851,1.123434,1.521080,1.026995,2.744038,2.231300,1.505866,2.382782,very_high
0.982379,0.101892,0.564591,0.130634,0.493495,0.987001,0.431087,1.831984,1.612069,2.246320,1.479979,1.696328,1.506215,2.800879,2.437200,2.916069,1.766591,2.418854,very_high
0.112039,0.360234,0.663027,0.371837,0.900191,0.356797,0.839309,0.595700,2.130333,2.622816,0.495714,2.391620,1.830827,1.773100,1.048225,1.661576,1.840300,1.617535,medium
0.397856,0.270393,0.679067,0.025839,0.044269,1.026139,0.376349,1.899599,0.168629,2.648656,1.244063,1.314314,0.558293,2.738232,1.682778,2.521748,1.609464,2.324428,medium
0.969470,0.842712,0.931740,0.221779,1.281420,1.628033,0.016610,0.303334,1.895209,0.683096,2.358882,2.880175,1.966860,1.077895,2.364697,2.062715,1.187118,1.734933,medium
0.865507,0.313348,0.996949,0.780471,0.827852,1.553721,1.940115,0.163938,2.293949,2.687727,1.238578,0.815381,1.369803,1.291327,1.258058,1.440180,1.228662,2.888984,medium
0.817072,0.788932,0.720157,0.201175,0.540117,1.577164,0.863406,0.863231,2.335543,1.024654,2.089592,2.233702,1.860614,1.645059,2.602176,2.230611,1.596262,1.686733,high
0.257903,0.891872,0.287221,0.080063,0.413674,1.416048,1.938699,1.656646,2.310335,0.927923,1.521641,1.257094,0.718814,1.690924,2.829147,2.934352,2.643618,2.206036,very_high
0.170888,0.433817,0.879752,0.474453,1.308046,0.508436,0.280647,0.946842,0.678848,2.180268,0.723669,1.457965,1.303185,2.695588,1.708209,1.248617,1.269255,2.500291,low
0.668643,0.909943,0.049221,0.009969,0.832434,1.724168,1.174734,1.658573,2.926195,0.914089,2.388452,2.407506,0.630604,1.022402,2.411686,2.014560,2.485280,2.812815,very_high
0.929376,0.377318,0.231081,0.084766,0.359319,1.786887,0.401948,1.459374,2.985546,0.158899,0.252640,0.888646,2.625915,2.282224,1.296408,1.103217,1.577739,1.875857,low
0.556763,0.964078,0.897386,0.807626,1.378218,0.388305,1.580148,0.418857,0.226788,1.120853,1.574671,0.290436,1.463883,1.262625,2.381633,1.642433,2.766930,1.720970,low
0.571613,0.089290,0.256192,0.771473,1.130145,0.260911,1.567406,1.897763,2.809339,2.164397,0.626673,1.560767,0.674944,2.646431,1.042911,2.241205,1.856657,1.860056,high
0.279979,0.687019,0.220651,0.915139,1.717344,1.951210,0.225214,0.121562,0.868348,0.980875,0.201197,1.586384,0.123626,2.557147,1.301543,2.682114,1.343447,1.647393,low
0.769493,0.493814,0.138125,0.854515,0.234952,1.736648,1.824129,1.796559,2.067852,1.888677,1.508802,2.391503,2.027216,1.999842,2.419763,2.460657,2.971689,2.307849,very_high
0.187044,0.387649,0.859112,0.683176,1.571333,1.786472,0.389259,0.608887,1.014333,1.980358,1.498686,2.904958,0.643934,1.425374,2.423700,1.925714,1.353269,2.865434,high
0.323679,0.632712,0.500058,0.052333,1.347034,1.772753,1.225955,1.000296,2.903263,2.201208,2.120703,0.165902,2.968747,2.268991,2.282325,2.818446,2.135240,1.252142,very_high
0.425436,0.703857,0.674893,0.782849,0.230022,1.083374,1.971267,0.844704,0.304512,2.691391,2.234252,1.775068,1.601101,1.312517,1.954728,1.605429,2.138573,2.121844,high
0.507610,0.004363,0.239066,0.845511,1.389641,1.292803,1.764793,0.343669,1.493240,1.297693,2.183374,2.043836,0.866931,1.380048,2.349816,2.507967,1.745627,2.795297,high
0.242410,0.166953,0.758040,0.799082,0.883095,1.090726,1.913128,0.716294,1.284143,0.499296,1.228676,2.957404,1.973032,2.253380,2.547602,1.948018,2.902977,1.200229,high
0.114837,0.713046,0.760006,0.508479,1.889970,0.102413,0.685198,0.385869,0.978070,0.956777,1.895069,2.827771,0.825660,2.982457,2.932963,2.797272,2.687749,1.987731,very_high
0.610620,0.666385,0.312598,0.232902,0.283223,1.491006,0.211151,0.407773,1.936602,1.296502,1.730836,2.137352,2.460823,2.782122,2.777282,2.594866,2.659639,2.730459,very_high
0.288631,0.966048,0.410683,0.845330,1.285667,1.010664,0.376694,0.374114,0.393167,2.141674,1.264685,1.565368,0.924708,2.186215,2.589068,2.802939,2.948304,2.800904,very_high
0.581238,0.761038,0.209690,0.727163,0.763960,1.295418,1.000990,0.978035,2.149987,0.039366,1.791638,0.484572,2.964743,2.077074,2.389515,1.428496,1.914219,2.028704,medium
0.154363,0.950773,0.976561,0.980761,1.913629,1.005280,1.586459,1.595863,2.941776,0.947356,2.841744,1.152530,1.815434,2.996770,2.148311,2.336301,1.194372,1.049904,very_high
0.481140,0.702541,0.645603,0.155693,0.659950,0.983623,0.300307,1.137940,2.413676,2.339528,0.578681,1.755367,2.533233,2.094794,1.241218,2.476927,2.530912,1.211278,high
0.532589,0.298052,0.934544,0.225665,1.924372,0.343578,1.319463,1.786413,2.580050,2.012573,2.717316,2.175601,0.218446,1.840233,1.331114,2.484829,1.761625,2.173433,very_high
0.051824,0.105365,0.303386,0.211798,1.802972,0.557427,0.647155,1.273089,1.078910,2.195220,0.160367,1.906199,1.044898,2.819111,2.640559,2.008001,1.380690,1.247717,medium
0.336604,0.781824,0.781891,0.792540,0.540766,0.317705,0.682404,1.378680,0.974660,2.435432,0.925168,2.142368,2.212461,1.468369,2.606626,1.022501,1.966495,1.298836,medium
0.134415,0.644149,0.765859,0.186907,1.607084,0.391333,1.323835,1.335214,1.551145,2.349707,0.864436,1.287458,1.965177,1.195052,2.228918,1.522862,2.851438,2.544234,high
0.063375,0.048186,0.691656,0.066660,1.991208,1.945955,0.933999,0.898918,0.137180,2.046549,1.879095,2.182882,0.582729,2.268180,1.877680,1.646602,1.342714,2.501384,medium
0.989960,0.360050,0.965639,0.998561,0.505326,0.306227,1.624067,1.378678,2.836074,1.318985,0.393675,0.431224,1.068609,1.191699,1.052065,2.704073,2.697398,2.685546,medium
0.322354,0.956800,0.393555,0.024817,0.873554,0.538541,0.311837,0.139415,0.431356,2.950795,2.647043,0.487759,0.790330,1.746297,1.654354,2.681772,1.836410,1.211470,low
0.809874,0.500401,0.130717,0.835244,1.040361,1.181179,1.579897,1.719703,2.709039,1.707220,2.485654,0.488496,1.840111,1.847155,1.841279,1.209360,1.273604,1.396290,medium
0.254641,0.432729,0.671709,0.365367,0.589862,1.220357,0.128470,1.555624,0.250747,0.608308,1.956197,2.672595,1.033705,2.095076,1.971633,2.899672,2.696765,2.665923,high
0.681503,0.457700,0.729310,0.841615,0.030530,0.307948,0.388108,0.490460,2.467875,0.878439,1.375241,0.228102,0.927163,2.983319,2.858649,1.364915,2.939241,2.442175,high
0.760228,0.208883,0.575061,0.554620,0.440258,1.587435,1.312299,1.536065,0.455888,2.080687,2.798868,2.404525,0.622134,1.441963,1.217419,1.828719,1.582541,2.611912,medium
0.595639,0.368707,0.206818,0.901631,0.563874,1.570406,1.709851,0.025285,0.114395,2.774219,2.492240,0.700713,1.227081,1.751513,2.037734,1.430314,1.607072,2.979491,medium
0.471576,0.369813,0.504456,0.926193,0.887199,0.474635,0.505359,0.434493,2.158468,0.536160,1.497945,1.405290,0.586508,1.264480,1.735845,2.720665,1.781092,2.728863,low
0.411841,0.052355,0.312190,0.009098,0.342205,0.577333,0.654383,0.130274,0.840796,0.247039,2.105620,2.747870,2.887709,2.215227,2.980196,2.498804,2.628261,2.040927,very_high
0.348868,0.767568,0.427467,0.075412,1.746509,1.875976,1.074241,1.560454,2.143488,2.644593,1.700790,1.757812,0.463505,2.455346,2.723728,1.707058,1.020834,1.621536,high
0.929529,0.416504,0.645219,0.250359,1.409822,1.651343,0.423146,1.511748,1.665256,2.745834,1.763827,0.630353,2.739914,1.964154,1.877572,2.363757,1.447913,2.139353,very_high
0.830619,0.822180,0.745215,0.669315,0.170401,1.395594,1.622313,1.627272,0.326422,0.829138,0.992928,0.852270,1.285419,1.491663,2.999391,1.368734,2.411800,2.277173,medium
0.965027,0.850348,0.232225,0.888272,1.300185,0.164466,1.547273,0.008963,2.796390,1.131857,1.386254,2.761340,1.133598,2.241777,2.028126,1.764594,1.811279,1.670624,high
0.124297,0.211994,0.405325,0.459942,1.307313,0.836528,0.290583,1.002465,1.356943,1.980564,0.234364,1.281432,0.693959,2.078315,1.334236,1.754215,1.660591,2.541874,low
0.730867,0.657353,0.269162,0.606973,1.912442,1.118604,0.927659,1.409672,2.203342,0.989790,1.072046,1.760956,1.907269,1.342371,2.111749,1.475873,2.744566,1.185508,medium
0.938340,0.472282,0.198632,0.188500,0.006042,0.374823,1.549656,0.310802,1.503062,2.631476,2.087486,1.379797,2.056584,1.811364,1.452412,2.752624,2.834668,2.558786,very_high
0.181233,0.880157,0.783387,0.804967,0.495865,0.896453,0.674659,1.299581,1.813084,0.322736,2.859648,1.135314,1.402713,1.870394,2.272626,2.357691,2.895972,1.063997,high
0.066496,0.215741,0.909253,0.967328,1.855583,1.202052,1.266214,0.168220,0.908321,0.113947,2.889192,0.669837,0.167121,2.965236,2.874880,1.559879,1.545101,1.995932,medium
0.741121,0.677813,0.370232,0.268599,1.864268,0.654753,0.100426,0.362652,0.601081,0.625459,1.667169,2.058575,2.755530,2.698572,2.572397,1.484242,2.825025,2.722873,very_high
0.574473,0.607752,0.751279,0.494826,1.441173,1.561890,1.217378,0.951594,1.627711,0.858263,1.819867,2.154726,2.940987,2.468742,1.546327,1.035907,2.473931,1.172991,high
0.841829,0.295301,0.896995,0.086116,1.531527,1.680899,0.305306,1.307130,1.320657,0.338780,0.557164,0.824655,1.293130,2.777554,1.593717,1.693165,1.308429,2.035478,low
0.139772,0.136601,0.846124,0.559137,0.182966,0.647219,1.661167,0.291738,1.170340,0.197071,2.085924,2.367033,1.840982,2.470969,1.138576,2.053543,2.220540,1.318783,medium
0.795267,0.651640,0.182813,0.502783,1.027752,1.677314,0.710899,0.370447,2.017702,2.266823,0.211976,2.563606,1.350896,2.806804,1.571736,1.555422,1.052670,2.789632,high
0.201627,0.738597,0.956292,0.144436,0.463166,0.207153,0.563108,0.408893,2.071520,0.492830,0.854057,2.762025,0.965639,1.109106,1.185250,2.400917,2.416756,2.664691,low
0.163656,0.315627,0.376676,0.442066,0.362436,1.675458,1.681778,0.477402,0.137760,2.741767,2.005090,0.483637,0.231956,1.912132,1.998897,1.823499,2.467135,2.867834,medium
0.164266,0.644833,0.339241,0.334105,1.620607,0.305501,0.100288,0.453108,1.016233,1.103999,0.930930,0.911771,1.368203,2.493797,2.416694,1.632636,2.578677,2.749965,medium
0.814575,0.395131,0.062431,0.521831,0.270076,0.165854,0.793218,0.790298,1.235294,2.011817,0.149541,2.581060,2.455154,2.166592,2.502362,2.878115,1.345050,2.473107,high
0.665197,0.713207,0.486174,0.585654,0.937303,1.283551,0.740007,1.307579,0.290676,0.676206,2.495611,0.595621,0.051094,1.350332,1.119058,1.525602,2.256500,1.369778,low
0.523065,0.199215,0.109014,0.008496,1.877156,0.943875,0.569601,0.876064,0.707703,0.720968,0.930990,0.010405,1.746323,1.680984,1.679912,1.796515,1.357713,1.605005,low
0.358830,0.890215,0.248540,0.761006,0.371664,1.815781,1.823509,1.551948,0.154925,1.724128,0.189316,2.612482,2.642316,1.635549,1.576344,1.764582,2.893300,1.993710,high
0.877201,0.287410,0.316943,0.713014,1.955987,0.726378,1.501857,1.438537,2.988726,1.681929,0.224364,0.979348,0.652648,1.522694,1.208601,1.482397,2.350021,2.177794,medium
0.392445,0.367786,0.808826,0.366286,1.988576,0.574305,0.127846,0.253054,2.209672,2.306188,0.755276,1.243493,0.549768,1.686271,1.724943,1.434953,1.190652,2.564367,low
0.816599,0.058092,0.875489,0.052936,1.111234,1.001470,1.429375,0.097683,0.262350,2.273440,0.534048,1.339002,2.316830,2.029707,1.598640,1.604760,1.374064,1.453919,low
0.439135,0.111512,0.302466,0.754933,0.340285,0.911892,1.054598,1.755883,0.060748,2.012063,2.322900,2.544824,0.765259,2.709738,2.268998,2.728472,2.326920,1.256555,high
0.376944,0.515862,0.858698,0.955175,0.632210,0.688856,1.801736,0.159662,2.157863,1.347392,0.965052,1.013676,0.575953,2.484065,2.766605,2.534166,1.953341,1.965220,high
0.462680,0.267593,0.857231,0.240152,0.848986,1.387483,0.625891,0.296678,1.317576,2.671921,2.414087,2.676840,1.133968,2.670499,1.909683,2.361999,2.472595,1.315683,very_high
0.301378,0.835480,0.764651,0.323525,0.618648,1.519124,1.148324,0.044267,2.360390,1.867735,0.521538,1.850817,1.177506,2.767207,2.493330,1.914206,1.561578,2.387474,high
0.747609,0.014693,0.146695,0.183813,0.561271,1.705968,1.001511,1.256673,2.770428,2.970595,1.478638,1.581860,2.622303,1.832301,1.292021,2.015508,2.315835,2.151262,very_high
0.502720,0.379094,0.690323,0.576936,1.944459,1.945713,0.979122,1.164741,1.797901,2.458109,2.064111,0.976844,1.855330,1.692053,2.789933,1.534278,1.353920,2.482216,very_high
0.232213,0.337346,0.945024,0.154841,0.306730,0.533312,0.912211,1.973807,0.561325,0.132929,1.955973,0.731135,1.217884,1.115247,1.305189,1.148632,2.087421,1.126873,low
0.899575,0.019328,0.682540,0.356194,1.466656,1.432187,0.411259,1.773865,2.346582,0.961782,1.803388,1.872175,1.603164,2.860983,1.384202,1.662081,2.915599,2.929395,very_high
0.383891,0.124368,0.331617,0.697013,0.000821,0.788516,1.511420,0.821686,2.867435,1.715627,2.774465,1.340682,2.861896,1.131646,1.212928,1.991168,2.256444,1.000011,medium
0.543553,0.413643,0.500579,0.560116,1.192365,1.354164,0.902672,0.743172,1.740694,2.164409,0.685575,2.731548,0.339644,2.482271,1.619359,1.114626,1.099987,1.650885,low
0.906472,0.492865,0.645725,0.386463,1.831886,0.951963,1.917033,0.593704,2.045992,1.651009,1.481158,1.474916,0.623147,1.756217,2.104821,1.176467,2.977524,2.359270,high
0.624238,0.404290,0.510570,0.420250,0.575868,1.987546,0.521617,0.304814,1.012424,2.358391,2.651978,1.535385,2.887586,2.897562,2.975988,1.526050,1.313733,1.090284,very_high
0.116898,0.530938,0.119953,0.562111,0.371052,1.457804,1.365488,0.276167,1.144583,0.847967,0.233681,1.250170,2.871975,1.839204,2.586736,1.734161,2.436138,1.166699,low
0.939832,0.595132,0.312064,0.005865,1.303360,1.904983,1.881434,0.264567,2.203963,0.551736,0.167665,2.367789,0.531496,2.633217,1.760872,1.786634,2.065060,1.153363,medium
0.627708,0.009924,0.802396,0.078510,1.425203,1.669939,1.326917,0.228230,2.783313,0.161750,0.699907,1.274518,0.435326,1.565310,2.151692,1.235772,1.588721,2.163019,low
0.334906,0.464095,0.861418,0.881258,1.376061,1.805802,1.742546,0.481024,1.886965,1.719941,1.899064,0.808026,1.263255,1.598177,2.246616,1.451643,1.354621,2.791851,high
0.139272,0.963499,0.137300,0.077879,0.638634,1.628838,1.654962,0.613337,2.369544,2.065799,0.779639,2.586093,0.149155,2.191039,2.645454,1.523295,1.355405,2.110874,high
0.794025,0.519032,0.952387,0.706804,0.504405,0.918318,0.720235,1.923158,0.514905,0.978449,0.570720,1.790485,1.964711,2.995965,2.472904,1.135270,2.716799,2.207143,high
0.620073,0.677542,0.328823,0.920038,1.911838,0.503577,1.200248,1.156947,0.635877,1.840753,1.376407,1.774531,0.232488,2.035145,2.138582,1.652199,2.745825,1.692003,medium
0.533461,0.311864,0.662314,0.270684,1.846599,0.740640,0.312523,1.975192,1.596104,0.156472,1.840794,1.832467,0.174089,2.872617,2.338366,1.144443,1.930291,1.037482,low
0.893893,0.773991,0.751825,0.370491,0.914633,0.040472,1.071052,0.744934,0.529663,0.297880,0.745673,2.156519,1.455561,2.572500,2.491835,2.406916,1.207243,1.043229,low
0.788597,0.772921,0.811946,0.568921,1.692388,1.047986,0.460844,0.915253,1.904985,2.105264,0.902074,0.939204,2.873360,2.591729,1.266288,1.772096,2.768330,2.776620,very_high
0.151675,0.521296,0.945750,0.881709,0.904647,1.010116,1.487474,0.649157,0.874960,1.104209,1.840678,0.101533,1.280388,1.871920,1.400911,1.653505,1.974033,1.205145,low
0.311722,0.976014,0.312920,0.941906,0.848778,1.050501,1.056117,0.365775,2.374598,2.014002,2.837215,2.431779,1.069443,1.773085,2.377169,1.253044,1.877525,2.999579,very_high
0.248489,0.125550,0.858506,0.739563,0.313526,1.948062,0.822455,0.286329,2.424331,2.495163,2.024225,0.386715,2.993870,1.383844,2.700851,1.453007,1.814714,1.328845,high
0.743946,0.016948,0.131687,0.086620,0.852812,1.822908,0.537594,1.890158,1.391362,2.557867,2.348712,2.165459,1.595907,2.927883,1.818525,1.465410,1.730028,2.349269,very_high
0.033532,0.770158,0.705041,0.669154,1.074834,0.323426,1.997397,1.973621,0.542432,0.516503,1.100430,0.246946,1.125724,2.918787,2.959781,2.970408,2.052011,2.897911,very_high
0.569890,0.807156,0.741978,0.410304,0.045009,0.737765,0.143421,0.089819,1.940325,1.458857,0.816763,1.125924,1.157582,2.494135,1.432143,2.670699,2.209082,1.724579,low
0.762459,0.120207,0.677723,0.470701,0.888226,0.847912,0.087121,0.300692,2.978361,2.201780,1.362803,0.189078,0.584878,1.592505,1.833399,1.030525,1.932864,2.468866,low
0.876766,0.265583,0.252315,0.049148,1.562712,0.721066,0.434515,0.847048,1.867773,2.321942,2.421398,1.566641,1.536669,1.490359,1.757046,2.233673,2.793296,1.701713,high
0.342082,0.017552,0.873043,0.191062,1.360092,1.596992,1.942145,0.372667,0.107324,2.354028,1.368899,1.959407,1.316565,2.977220,2.860592,1.511820,1.635322,1.609882,high
0.821257,0.293309,0.168858,0.790514,1.270314,1.048075,1.958476,0.727761,0.051882,0.684502,2.540176,0.514299,0.812386,1.133086,1.570757,1.208754,2.156624,1.403608,low
0.110632,0.773142,0.053635,0.453959,1.819111,1.144200,1.309855,0.258193,0.961086,0.577604,2.966316,1.114883,0.481620,2.687129,1.941582,2.411200,1.599908,2.641870,high
0.846452,0.517961,0.717465,0.301662,0.036064,1.706027,1.760213,0.913024,0.587351,1.770037,0.216080,2.790718,0.933717,1.710916,1.374468,1.263211,2.506700,1.514774,low
0.127489,0.348096,0.475476,0.384019,1.114095,1.611856,0.427923,0.543389,2.439154,2.223257,0.136230,1.327167,1.526050,1.837739,2.042532,1.887482,1.204242,1.566316,low
0.397287,0.371739,0.849098,0.854400,1.574698,0.264423,1.944084,0.703810,2.534417,0.957419,0.448769,2.407631,0.175000,2.663955,2.714808,2.264330,1.377398,2.997939,very_high
0.797295,0.001354,0.383397,0.748999,1.082671,1.427829,0.285570,0.188625,0.775856,0.314115,1.153109,2.781554,0.461232,1.181206,1.608079,2.108990,2.602403,1.654621,low
0.149917,0.299801,0.168279,0.272315,0.647791,0.870872,0.202250,0.856256,0.976934,2.150239,0.393127,2.923037,2.842972,1.708339,2.621584,2.955258,1.366395,1.845549,high
0.229251,0.646459,0.836442,0.117502,0.272501,0.589298,0.224423,1.966515,0.708741,0.899093,2.611993,2.694966,1.628566,2.904049,2.822623,2.571485,2.251493,2.980111,very_high
0.722253,0.974194,0.548910,0.251998,1.775126,0.100038,1.146256,0.657666,2.725148,0.499088,0.069439,0.952216,0.190348,2.398132,1.145916,2.548387,2.940487,1.738601,low
0.720037,0.847061,0.189196,0.920756,0.941525,0.974499,1.561949,1.752859,1.507948,0.443171,0.947378,2.887719,2.079263,2.509878,2.512849,1.711191,2.045781,1.732304,very_high
0.641148,0.023595,0.720384,0.581589,1.756230,0.710873,0.733334,1.686398,1.968411,0.944729,0.554084,2.437186,0.185409,2.515011,1.510687,1.016791,1.374793,2.655429,low
0.693948,0.898561,0.511114,0.533480,1.171704,0.503026,1.955792,1.904117,1.246446,1.778034,2.794618,2.511527,2.216623,1.121140,1.350655,2.468822,1.641382,1.623861,high
0.542724,0.783198,0.604313,0.596394,1.348384,1.389343,0.868840,1.580219,1.893043,1.075207,2.008443,0.045519,2.249888,1.406415,2.202245,2.999464,2.646916,1.467572,high
0.251799,0.780376,0.460898,0.366028,1.608522,1.538971,0.300897,1.319194,1.157566,0.061986,2.736091,2.862717,1.953237,1.982527,2.411205,1.811758,1.703322,1.846421,high
0.345696,0.457996,0.828709,0.807107,1.318311,0.489579,0.931933,1.713169,1.019035,0.290725,2.916986,2.334271,2.196614,1.736300,1.789522,2.971037,2.447023,2.401282,very_high
0.181598,0.398005,0.829563,0.523286,0.796110,0.098895,1.358074,0.151289,1.903440,0.871510,1.491295,2.303902,0.263897,1.821825,1.078347,1.283416,2.554700,1.086486,low
0.908451,0.302916,0.709389,0.116748,1.027267,1.697505,1.664452,0.925661,1.773186,1.979113,0.702957,0.244574,2.180342,2.562895,2.817409,1.593025,2.002366,1.747832,high
0.583392,0.065695,0.105401,0.129065,1.606091,0.019919,0.917537,1.978512,0.880584,0.295545,0.581186,0.697706,0.410065,1.029358,2.461494,1.341454,2.566427,1.692490,low
0.400851,0.228235,0.838854,0.536859,0.747301,1.874225,1.187214,1.539200,0.448045,1.681971,0.668757,2.886785,1.018518,2.320984,1.543334,1.950352,1.633806,1.489637,medium
0.462006,0.246604,0.671013,0.936570,0.776243,1.255240,0.534689,1.924151,1.105730,0.359658,2.125780,1.502031,2.828236,1.000220,1.993728,2.593963,2.032319,2.308575,high
0.947283,0.484077,0.697024,0.308352,0.191380,0.643693,1.291833,1.559269,1.245593,0.634846,0.121337,1.193574,1.508626,1.126117,1.055586,1.681323,2.373117,1.579980,low
0.153351,0.747444,0.362983,0.869541,1.829169,0.492956,1.971944,1.749764,1.886053,0.516566,0.154083,2.519822,2.902279,1.816572,1.678566,2.812458,1.336146,2.213463,high
0.586230,0.473810,0.879280,0.764096,0.182073,0.018011,0.098107,1.413059,2.743586,0.201686,1.824429,0.262021,0.266767,2.681897,2.045070,2.089661,1.547244,2.008674,low
0.505889,0.057844,0.725372,0.247812,1.296418,0.470943,1.773061,1.521004,0.108554,2.013989,1.926171,1.250826,1.432670,1.289992,2.034447,1.930849,2.304073,1.434380,medium
0.611454,0.957790,0.112590,0.036341,0.826389,0.275457,1.124565,1.046356,0.730983,1.390211,1.995789,1.127102,0.187207,2.109243,1.416370,2.574072,2.310720,1.533132,low
0.018110,0.942724,0.407778,0.101847,0.811239,1.224332,0.504197,1.848475,0.581148,2.493160,1.115642,1.049554,1.890631,2.357010,2.553495,1.202887,1.986605,1.341200,medium
0.872124,0.785190,0.886380,0.728494,1.359104,0.333091,1.909779,1.650078,1.506883,0.296673,2.417835,0.923077,0.236121,1.459066,1.597724,2.547505,2.591171,1.113258,medium
0.932118,0.991328,0.047197,0.199670,0.134187,1.057260,0.966709,1.687770,1.289102,0.434199,1.600874,0.630225,0.526103,2.024661,2.160820,1.485904,1.964110,2.238377,low
0.565133,0.544482,0.961417,0.371271,1.187412,1.180233,0.663381,1.346018,2.187113,0.919373,0.316397,0.518732,0.776491,2.822815,1.543044,1.561625,2.762645,2.345577,medium
0.696651,0.962768,0.679163,0.501699,1.544064,0.596083,0.362995,0.609160,0.727248,2.297598,2.391298,1.921218,2.246232,2.024457,1.850336,2.198908,2.471807,1.332000,high
0.922499,0.075605,0.631376,0.725468,1.656426,0.070130,0.488904,0.071260,1.783495,0.917276,2.859203,2.758185,0.491886,1.314646,1.415029,2.803869,1.629390,2.230785,medium
0.707239,0.365681,0.270559,0.113231,0.341061,0.074508,1.665698,1.871310,2.651572,1.225256,0.180109,1.526555,2.539896,2.255629,2.266016,2.156814,1.790508,2.964169,very_high
0.152539,0.225381,0.248792,0.406366,1.794838,0.052695,1.228820,1.172241,2.732033,0.904811,1.174054,0.893924,0.395712,2.184400,1.851169,2.297899,2.335373,1.148804,medium
0.576288,0.195833,0.942058,0.485073,1.312292,1.478249,1.826491,0.596286,2.876354,0.240673,1.462548,0.477481,0.105733,1.053910,1.032235,2.553189,2.788905,1.980742,low
0.606715,0.140803,0.298272,0.540827,1.763710,0.636019,0.463937,0.298270,2.319783,2.818301,0.439412,2.490430,1.185136,1.181189,1.056330,1.518650,1.357417,2.466076,low
0.424131,0.622414,0.775505,0.818361,0.970561,1.592600,0.242277,1.659046,2.717964,1.645617,2.603127,2.914476,2.938325,1.313563,1.942269,2.654467,2.029327,1.092018,very_high
0.736444,0.781322,0.393122,0.171678,1.084067,0.863466,0.012175,1.673040,0.703593,2.363500,0.852449,1.047466,0.331027,1.272578,1.366452,1.835920,1.237569,2.556547,low
0.934367,0.578298,0.139254,0.807831,1.838077,0.905996,1.015724,1.629016,0.592743,1.975071,2.349026,0.872851,0.305155,1.518932,2.170084,1.351311,1.558910,2.959022,medium
0.925569,0.146963,0.010715,0.692878,1.799819,1.025765,1.996614,1.290165,0.019464,1.542763,2.012983,1.804479,2.253500,1.908211,1.816384,1.700236,2.371963,1.176976,medium
0.450839,0.811124,0.544257,0.555871,0.896322,1.426063,1.389931,0.732031,2.120533,0.269035,1.794137,2.325987,0.936485,1.743433,2.308840,1.492262,1.155469,2.644460,medium
0.113238,0.635955,0.975779,0.699528,0.548825,0.547006,0.616789,0.608141,2.812402,1.928201,0.576429,1.366208,2.151845,2.781300,2.904790,1.457427,2.324717,1.757163,very_high
0.984841,0.388166,0.369136,0.412018,0.786341,0.243175,1.753717,0.017110,0.560806,0.466111,0.662111,1.890219,0.600032,2.224219,2.057472,1.565126,2.801622,1.288232,low
0.838898,0.674130,0.357192,0.138398,0.775529,1.112115,1.563445,1.667215,1.910831,1.243150,0.142045,2.149647,1.380216,2.752289,2.574757,1.361862,2.938741,1.986386,very_high
0.124663,0.259905,0.344092,0.665765,0.573734,0.653955,0.030830,0.174865,2.239379,1.887339,0.722137,2.881777,0.795870,2.054079,2.506082,2.335404,1.433264,1.143037,medium
0.920842,0.345192,0.520544,0.524672,0.537159,0.884983,1.633721,1.261510,2.782843,2.346687,1.036331,0.495112,1.354585,1.179741,2.843582,2.159984,2.497796,2.044203,high
0.869896,0.917486,0.440665,0.639375,1.722126,1.293893,0.601054,1.008150,1.940581,2.055136,2.499436,2.992147,2.307291,1.926575,1.428036,2.296884,2.852741,1.038714,very_high
0.518838,0.290505,0.879915,0.337999,0.139724,0.988251,0.299347,1.053379,2.910881,2.014601,1.099178,1.176470,2.286030,2.644065,2.654654,1.687449,1.182739,2.457223,high
0.591275,0.469988,0.505521,0.906867,1.355222,1.240558,0.452662,1.853426,1.034019,0.447127,2.263865,2.169600,1.547317,1.388208,2.811041,2.539467,1.828047,1.975939,high
0.399003,0.890141,0.507758,0.587370,0.345640,1.088400,0.937160,0.063230,1.049786,1.038386,1.318327,1.717243,2.785116,1.182429,1.785526,1.259217,2.838820,1.917879,medium
0.054762,0.707721,0.138372,0.085402,0.689012,1.479593,0.849736,1.546784,1.629038,0.128737,2.354605,1.460006,0.791352,1.658869,1.627632,2.142273,1.405575,1.392383,low
0.335197,0.062203,0.982740,0.449804,0.123086,1.411873,0.577775,0.104105,1.150506,2.158431,2.928815,2.094226,0.720934,1.777796,2.904072,1.550906,2.867521,1.722526,high
0.802853,0.147303,0.249973,0.756356,0.539947,1.068380,0.344437,0.076307,0.004277,2.857758,0.719525,1.187262,1.841419,1.612515,2.255266,2.055220,2.054384,1.363739,low
0.004632,0.007842,0.073364,0.794135,1.536842,1.357806,1.524462,0.859635,2.195316,0.792331,2.587025,0.378330,1.863891,1.270482,1.761353,1.647274,1.199786,2.470780,medium
0.333499,0.630922,0.663146,0.494597,1.770031,1.747119,1.980220,0.126150,2.255151,0.263090,1.865472,1.466680,0.139620,1.501680,2.583655,2.581024,1.899755,1.398051,medium
0.398169,0.447673,0.595366,0.894748,0.443054,0.864543,1.555583,1.578288,2.240924,1.426710,2.451883,1.565748,1.823333,2.364565,1.608948,2.782544,1.652522,2.233507,very_high
0.537396,0.134275,0.415146,0.267668,0.927096,0.825526,0.591874,1.059126,1.035062,2.570095,1.954758,0.605706,1.123308,1.771857,1.352815,2.485162,1.564408,1.559215,low
0.919856,0.957934,0.422192,0.410599,0.940648,1.528491,0.489618,0.058078,1.566868,1.655923,1.271849,2.806858,2.242328,2.265099,2.087939,1.351167,2.082951,2.313964,high
0.346346,0.529660,0.785064,0.898597,1.747151,1.165108,0.435332,0.081001,1.079921,0.140331,0.684225,0.682427,2.424317,2.072608,2.132424,1.549734,1.967185,2.080910,low
0.346953,0.241893,0.195713,0.896257,1.525598,0.142014,0.273390,1.225337,0.048109,2.922817,0.210106,1.227683,1.656461,2.098106,2.651493,2.838716,1.963934,1.846877,medium
0.737501,0.500604,0.820253,0.685713,1.026154,1.784224,1.102661,1.612224,1.687347,2.485950,1.606555,0.464789,0.005115,1.497099,1.914055,1.874440,1.176283,2.346002,medium
0.452218,0.679620,0.648747,0.858981,1.341494,0.061566,1.210801,0.875599,0.371282,0.394782,2.970978,1.607390,1.909097,2.043086,2.629173,2.882361,2.604636,1.831444,very_high
0.224605,0.076239,0.418970,0.088773,1.694710,1.496793,1.411005,1.109161,0.240124,2.765393,2.214125,0.922913,2.246644,1.047189,1.622645,1.784903,1.962879,2.642741,high
0.452440,0.274704,0.458029,0.864995,0.019078,1.517588,1.360427,1.599659,2.266497,1.352065,0.982037,1.467818,0.746950,1.863487,2.150736,2.903549,2.641812,2.459197,very_high
0.140857,0.806965,0.256647,0.320620,0.805780,1.906222,0.584667,1.221012,0.028519,1.115694,2.481614,0.673851,1.393938,2.145246,1.416946,2.851478,2.649189,2.081278,medium
0.176387,0.459665,0.752114,0.178332,1.814486,0.108269,0.660622,0.449520,2.877025,1.383160,2.306952,0.161325,2.897180,1.363991,1.770892,2.321054,1.634271,2.754121,high
0.498368,0.546577,0.512875,0.239370,1.480626,1.193714,1.363029,1.226104,1.545766,2.503716,0.844907,2.337680,0.894347,1.513117,2.715079,1.017654,1.008693,2.657724,medium
0.418925,0.432816,0.320855,0.417969,1.085683,0.855681,0.698895,1.256559,2.949049,1.978439,0.042922,1.923259,0.669460,1.439062,1.431976,1.800669,2.822491,2.063679,medium
0.914846,0.043900,0.596050,0.251192,1.059289,0.661266,0.425246,1.468214,0.173993,0.177745,0.354488,1.022218,0.632564,1.141116,2.620479,2.822470,2.521389,1.136895,low
0.362394,0.165750,0.995734,0.320568,0.695540,0.180637,0.748672,1.241748,1.750589,2.872813,2.631919,0.142483,1.676403,1.695715,1.565743,2.770221,1.214504,2.131993,medium
0.580588,0.445542,0.435262,0.134978,1.041041,1.125308,0.544168,1.938484,1.047981,0.443352,2.509689,2.596725,2.849361,2.957932,1.068979,1.374776,2.403454,1.710514,high
0.632264,0.209185,0.920691,0.296177,1.310766,0.958081,0.176625,0.394577,2.530447,2.236704,0.885627,0.509385,1.826070,1.707761,1.219869,1.798365,1.040047,2.080226,low
0.013094,0.049979,0.345017,0.572284,0.836726,0.209109,1.660278,1.902181,1.083668,1.908410,0.855586,2.792227,0.909969,1.921073,2.491759,2.671020,1.055518,2.294261,high
0.663537,0.843650,0.054733,0.441854,1.428306,1.224979,1.706223,1.076679,0.781463,0.562584,2.378595,1.435786,1.915709,2.306175,1.524142,2.155756,2.051646,2.289677,high
0.178036,0.981193,0.204242,0.346719,1.722464,1.475906,0.439501,1.343912,2.572659,0.512196,2.813212,1.021160,1.874527,2.296996,2.308291,2.694598,1.192075,2.347048,very_high
0.961070,0.793143,0.418695,0.746452,0.309370,1.534557,0.129544,0.198923,1.123959,2.610983,2.337412,2.225278,1.790775,2.899790,2.398398,2.653135,2.928673,2.358537,very_high
0.148663,0.853785,0.219635,0.893510,0.903094,1.810746,1.477655,0.761152,0.050500,1.259085,1.816736,2.630518,0.478279,2.715128,1.690237,2.814964,2.787662,1.218563,high
0.414624,0.241977,0.000227,0.756789,0.816040,0.818941,0.423057,1.538758,1.170867,1.963730,0.728014,1.112141,1.903700,2.587901,1.949838,1.234441,2.299624,1.383425,medium
0.085350,0.960627,0.915002,0.332001,1.374930,1.906146,0.786871,1.413822,1.963567,1.512213,1.577244,1.222031,1.290493,2.903254,1.807534,1.290430,1.127418,2.261082,high
0.996874,0.196926,0.843879,0.744442,0.499735,1.730859,0.128271,0.080279,0.763079,2.182061,0.700536,1.299475,0.055776,1.461531,2.894698,1.165618,1.649671,1.816345,low
0.502195,0.951430,0.742292,0.151980,1.280502,0.593003,0.452539,1.093189,1.295963,1.437727,2.424034,2.766969,1.619293,2.234108,1.639898,2.870538,1.743446,2.525703,very_high
0.595385,0.994819,0.167815,0.130318,1.754978,0.318566,1.585805,0.176556,0.170145,0.862140,1.160883,2.077692,2.967800,2.774394,1.366646,1.950325,1.961760,1.249819,medium
0.067076,0.711723,0.120364,0.345627,0.836263,0.870779,1.608793,1.991713,1.764278,1.090150,2.501092,0.742938,1.049219,2.248276,1.731186,1.128651,1.337806,1.383046,low
0.749960,0.981144,0.067605,0.807702,1.822031,0.803797,0.414170,1.794593,2.268885,2.577233,1.144828,0.554999,2.896678,2.954841,2.339031,1.643060,2.155023,2.116929,very_high
0.209906,0.569540,0.724029,0.246348,1.986327,1.151439,0.671828,0.042161,1.239938,1.404104,2.472448,0.691103,0.288617,1.200705,2.394725,1.702825,1.871541,2.001496,low
0.898054,0.259542,0.928808,0.063253,0.212184,1.166772,0.268477,1.717299,1.260698,0.640348,0.999953,0.790692,2.197350,1.878661,2.848115,2.619120,2.894594,1.532794,high
0.205140,0.436996,0.430536,0.131710,0.466106,1.499974,0.148345,1.838859,0.264847,2.803816,1.320398,0.690550,0.342990,2.954726,2.763509,2.470954,2.872390,1.816686,high
0.190688,0.593561,0.119141,0.858745,1.900760,1.019780,1.984343,0.707096,0.605823,2.389801,1.846465,1.975519,0.820715,1.759136,1.576641,2.378774,2.130948,1.069963,medium
0.036550,0.073082,0.512393,0.633783,1.916655,0.209645,1.311188,1.439003,0.464026,0.166998,0.210863,0.347801,1.712523,2.479113,1.910326,1.043727,2.288699,1.074076,low
0.472067,0.622343,0.348832,0.253201,0.195415,1.716583,1.084193,0.884207,1.445063,2.996829,2.844621,1.162075,1.778339,1.060806,2.494538,2.821392,1.275593,1.189854,high
0.564841,0.981178,0.374825,0.555296,0.029997,0.619529,1.530997,1.310465,1.587767,2.084780,1.720817,1.875161,2.325634,2.389674,2.833075,1.431111,1.446646,2.153585,very_high
0.065709,0.190108,0.621331,0.527580,0.322200,1.942595,1.680154,0.680635,2.846820,0.480800,1.523460,0.872580,1.845934,2.869253,1.674330,2.258123,2.801431,2.727433,very_high
0.775528,0.792595,0.718718,0.655436,1.992026,0.235720,1.613430,0.645118,0.219695,0.711503,2.518182,0.195823,1.780844,1.765413,1.888883,1.123638,2.398332,1.520447,low
0.453289,0.907899,0.110604,0.233188,0.359999,1.916502,0.033079,0.848868,1.799604,2.077336,2.597288,0.245472,2.737059,1.042600,2.798957,1.163052,1.378860,1.067880,low
0.524390,0.943702,0.035590,0.864403,1.005095,0.182024,0.373616,0.291136,1.579496,2.339283,1.566781,0.377900,1.356482,1.055820,1.716968,1.019155,2.140421,2.417254,low
0.440763,0.960136,0.994330,0.309369,1.696835,0.462072,1.309811,1.662278,1.548699,0.717108,2.781787,2.507529,0.675797,2.784047,1.961026,2.131855,2.869523,2.710704,very_high
0.400763,0.521460,0.232728,0.694132,0.040803,0.093160,0.751519,0.697396,2.619478,0.770907,0.194213,1.973591,0.485366,2.445032,2.809008,2.258759,1.690342,1.276346,low
0.559640,0.977308,0.053831,0.016125,1.208978,1.410226,1.964965,0.800299,0.616615,0.921362,0.339677,0.193567,1.199984,1.213373,2.604486,1.100925,1.371641,1.771495,low
0.155240,0.757310,0.189875,0.372657,0.554051,1.700597,1.330810,1.788109,0.122320,1.794055,1.790365,1.173207,2.138258,1.109181,1.486862,1.580970,2.884051,1.317474,low
0.181928,0.161671,0.038958,0.351710,1.724670,0.868142,1.913098,0.993248,2.016815,0.515449,1.062198,0.835756,0.127630,2.609651,1.649590,2.702909,1.922531,1.212715,low
0.861786,0.476900,0.391811,0.543484,0.566922,1.857044,0.402893,1.088508,1.035472,0.312730,1.392675,1.734120,0.387160,2.619721,1.705917,1.202617,1.834484,2.296337,low
0.946115,0.718331,0.802402,0.072736,1.373511,1.180598,1.727914,1.912996,0.052770,2.036592,0.984238,1.568418,0.318340,1.241044,2.825477,1.433094,1.535134,2.935073,medium
0.373309,0.247340,0.341244,0.790131,1.348439,1.260014,0.642705,1.773453,0.754122,2.337294,1.214176,1.443372,1.755750,1.603041,2.997867,1.848782,2.783171,2.356331,very_high
0.270745,0.640615,0.444183,0.217781,0.442987,1.690838,1.979130,0.338933,0.927980,1.502788,2.467939,0.943537,0.728594,2.560052,2.548009,2.684548,2.691234,2.969629,very_high
0.644000,0.666600,0.675587,0.677038,0.069598,0.593600,0.315377,0.946430,1.850515,1.091498,1.780429,0.413399,0.498778,2.050824,1.968653,1.509698,1.805981,1.868791,low
0.408734,0.162700,0.508894,0.803212,0.818499,0.708531,1.032680,1.942592,0.517757,1.296128,2.992034,2.227129,1.778312,2.913170,1.020348,2.994274,1.061227,2.795740,very_high
0.025386,0.565085,0.861446,0.561877,0.578386,1.811904,1.585689,0.744733,1.239163,1.165224,2.360638,2.639570,2.283930,1.962125,2.394976,1.710524,1.893303,1.410168,high
0.156153,0.771627,0.866036,0.740883,1.617955,1.801927,0.865285,0.743146,1.447426,2.879955,0.820999,2.832453,0.996465,2.353916,1.778722,1.772897,1.361716,1.235809,high
0.715972,0.498896,0.009911,0.661860,1.600728,1.952966,0.936168,0.390060,1.377712,2.304270,0.793035,0.175857,1.734614,2.019567,2.265973,1.244212,1.285468,2.405040,medium
0.658924,0.012103,0.778046,0.355530,0.914048,1.803677,1.972712,0.228646,2.921822,0.624262,1.007695,2.219726,0.294373,2.885931,2.213388,2.360396,1.786187,1.742817,high
0.027096,0.009038,0.460734,0.808859,1.213024,0.254744,0.850616,1.480610,0.136513,1.152567,2.529778,2.179510,2.805573,1.797318,1.961664,1.486930,1.198154,1.635375,medium
0.221972,0.357029,0.988841,0.294701,1.208519,1.647449,1.208144,1.540061,2.852905,1.632037,0.081863,2.841329,1.010689,1.459593,2.888775,2.257735,2.914929,2.342561,very_high
0.231075,0.926194,0.483232,0.571213,1.654316,0.819677,0.109079,1.938026,1.745812,1.838958,0.690544,0.758744,2.992517,1.653268,1.046293,1.446315,1.095078,1.666968,low
0.671893,0.228677,0.986896,0.745398,0.850005,1.981603,1.684420,1.546836,2.387183,1.404552,2.714755,2.226537,2.935763,2.705550,2.424265,1.775745,1.802739,2.145116,very_high
0.019711,0.634364,0.754569,0.378956,0.550893,0.944562,1.296336,0.486705,1.291178,2.430380,1.919689,0.163879,2.336470,1.995877,1.819680,2.713344,1.325405,1.598910,medium
0.104109,0.222076,0.248605,0.302768,0.530070,1.107672,0.808040,0.080233,1.361514,2.302818,0.680541,1.893737,0.060201,1.708505,2.427581,2.477812,2.377623,2.567515,medium
0.799916,0.321670,0.538395,0.459346,1.072385,1.059550,0.032339,1.970875,2.637979,1.515474,0.657435,1.052543,1.630425,2.088520,2.350439,1.309182,1.157623,1.624777,medium
0.178545,0.848042,0.992136,0.817963,0.898296,0.643474,1.183338,0.680901,2.687803,2.563288,2.587854,2.306728,0.260509,1.266459,1.020476,2.215416,2.093611,2.069988,high
0.652746,0.728861,0.857531,0.929922,0.880242,0.150044,0.025316,0.623943,0.716067,2.253269,2.681273,2.589913,2.685414,1.010719,1.570677,2.257281,2.546203,1.046352,high
0.238183,0.095399,0.097367,0.545083,0.182275,1.791302,0.002407,1.811910,0.597726,2.335746,0.768393,1.094463,2.368909,1.561169,1.378183,1.181137,2.900120,2.583462,medium
0.099441,0.428702,0.706372,0.661466,1.437207,1.605352,1.232197,1.170200,1.488706,2.869202,1.261531,1.576758,2.917021,2.210011,1.333973,1.931611,2.397055,2.240676,very_high
0.243172,0.029170,0.345580,0.903274,0.427473,0.279054,0.378034,0.429742,2.700831,0.799401,2.503787,0.352212,1.825149,2.423362,2.456953,1.521337,1.198984,1.384474,low
0.722267,0.480890,0.006982,0.098547,0.393907,1.553537,0.383775,1.778192,0.967065,0.802944,2.313022,1.250721,1.566518,2.653222,1.479103,1.934260,1.177041,1.430747,low
0.855696,0.662434,0.403481,0.232079,0.825517,1.251693,1.306543,1.986722,1.956044,2.666857,2.441748,1.082401,1.556922,2.853327,1.949475,2.554142,2.463196,1.524986,very_high
0.830220,0.118503,0.234754,0.708900,0.455557,0.818288,0.107394,0.173357,2.124455,2.316679,1.555195,0.549370,1.159345,1.824225,1.493978,1.316519,1.430659,2.153060,low
0.397184,0.288885,0.818869,0.823744,1.167717,0.508042,0.626811,1.724503,2.336024,2.779637,2.734647,2.683436,1.406070,2.481034,2.160468,1.246608,1.894479,2.096633,very_high
0.668085,0.397837,0.337331,0.857029,0.742927,1.719458,0.298864,0.781031,1.691773,0.189390,0.977855,0.444264,1.906238,1.149346,2.441148,1.538633,2.953242,1.547727,low
0.204984,0.919531,0.827524,0.415107,0.897823,1.400377,1.160353,1.048145,1.207366,1.883271,0.470016,1.907218,2.798843,1.115060,1.662149,2.904551,2.639814,2.388125,very_high
0.293148,0.993255,0.000598,0.089340,1.074339,1.095480,1.323530,1.829632,2.901048,0.433885,2.126197,2.670428,1.787653,1.249596,2.206042,2.495648,2.693187,2.778082,very_high
0.896336,0.044911,0.307819,0.437781,0.407071,1.219137,1.442272,1.946758,1.833992,1.511692,1.618063,2.735906,2.571348,1.897138,2.649710,1.038912,2.721540,1.087031,very_high
0.013002,0.761008,0.241165,0.230735,0.311503,0.182132,0.510462,0.524328,2.185696,0.467241,2.563757,2.379719,2.588340,1.422563,1.188449,1.802010,2.239091,1.834393,medium
0.085509,0.371724,0.233567,0.291196,1.760844,0.947840,0.178500,0.425702,1.034949,0.384236,0.243478,0.528423,1.556498,1.573850,2.421341,1.514796,2.487868,2.187040,low
0.207886,0.392458,0.068187,0.772268,0.867447,0.387401,0.157367,0.161033,2.009848,0.036505,2.531077,2.452294,1.042409,2.295760,1.646290,2.276289,1.717922,2.172870,medium
0.026532,0.754265,0.187124,0.075527,0.824187,0.416767,0.852303,1.123596,0.773393,1.890716,0.879884,0.829694,1.918722,1.717044,1.245300,1.918585,2.996892,1.039071,low
0.181435,0.918426,0.555550,0.827581,0.071224,1.322608,1.891689,0.027209,0.735291,1.077068,1.964567,2.767194,1.337632,2.114743,2.091308,2.928997,1.559244,1.421132,high
0.583042,0.950929,0.291361,0.427669,0.995953,1.822512,0.435458,0.823797,2.144167,0.315565,0.120386,2.127260,0.244323,1.824808,1.452525,1.437957,2.180015,1.123661,low
0.421425,0.577123,0.417395,0.596064,1.108339,0.807513,0.513483,0.146768,1.564184,0.968513,1.828744,2.355803,1.133427,1.337939,2.642724,2.175713,1.564123,2.137930,medium
0.892672,0.357121,0.376867,0.089652,1.117682,0.415499,0.201778,0.810452,2.049830,0.506832,2.151815,0.255097,2.982216,1.148040,1.085792,2.400420,1.224142,2.290780,low
0.817444,0.787549,0.875905,0.337359,1.414062,1.297494,1.211141,0.079864,0.808315,2.825084,1.106251,1.748295,0.145536,1.472463,1.197306,2.651129,2.135172,1.319484,low
0.341817,0.251001,0.905299,0.089701,0.354964,1.742374,1.359746,1.670435,1.796170,0.960015,0.646232,2.463426,2.090001,1.115401,2.041992,1.813942,1.706697,1.666022,medium
0.259423,0.564074,0.492957,0.961544,0.504446,1.496638,1.285862,0.419478,1.331801,1.001861,1.612892,2.584771,2.523566,2.237224,2.177884,2.373844,2.166439,1.659607,very_high
0.379692,0.358578,0.330156,0.807262,1.621461,1.737514,1.722260,0.656617,1.790881,2.519574,2.499572,0.085895,1.946178,2.591435,2.459773,1.606403,2.117357,2.639605,very_high
0.590295,0.656631,0.106801,0.459633,1.894341,1.073109,0.972852,1.740096,0.872639,1.943267,0.970642,2.817478,1.709245,1.679482,1.518521,1.870952,2.084513,1.389319,medium
0.268064,0.240399,0.953403,0.223603,0.271865,1.503752,0.268914,1.492532,2.146353,2.130515,0.757408,0.130016,2.122663,1.774222,2.683521,2.791254,1.246602,2.096628,high
0.624149,0.191593,0.060227,0.933455,0.995299,0.280129,0.578810,0.438077,2.417788,1.908005,0.836806,1.843556,1.288028,2.632382,2.906285,2.899815,1.880362,2.565871,very_high
0.409412,0.918239,0.297650,0.344597,0.428353,0.696549,1.324860,0.143799,0.779749,2.838589,2.847396,2.080163,0.274085,1.445226,1.998079,2.437635,2.624008,2.659156,high
0.552047,0.101804,0.298066,0.160984,0.120146,0.779098,1.226244,1.431348,0.901862,0.621002,1.077831,0.322036,2.887115,1.238321,2.521063,1.748704,1.630287,2.333132,low
0.436127,0.505958,0.320401,0.563164,0.651007,1.022591,1.062006,0.781405,1.983463,2.967118,0.010813,0.144036,1.296902,2.002236,2.049697,2.640116,1.887663,1.599056,medium
0.294466,0.220853,0.164287,0.943774,0.287375,1.858153,1.365929,1.532160,2.086756,2.492869,2.345044,2.354736,1.996168,2.292380,1.138934,1.051734,1.987663,2.646093,very_high
0.948453,0.038930,0.783161,0.003830,1.419866,1.748593,1.274782,0.890590,2.112299,1.766918,2.097824,1.154012,1.593931,2.199309,1.652223,1.205492,2.725463,2.484332,very_high
0.763606,0.036019,0.122498,0.238125,1.067451,0.269051,1.762650,0.692005,2.048096,1.987115,0.385705,0.321338,0.164019,2.427746,1.174973,2.322747,2.311200,2.408938,low
0.140113,0.175222,0.634907,0.938448,0.287669,0.345579,1.172033,0.902411,1.178423,1.946478,2.954713,2.288003,2.858240,1.113502,2.977758,1.582497,1.200405,1.134671,high
0.868468,0.866770,0.123846,0.171086,0.018483,0.715281,1.557203,1.497118,1.184561,0.175189,1.824187,2.547489,2.377612,1.856403,1.458052,2.902772,2.730342,1.086530,high
0.487431,0.282479,0.070536,0.113243,1.616314,0.581488,0.497414,1.804441,0.764453,0.654049,1.502338,1.762159,0.447294,1.477141,2.271801,1.872121,2.664132,2.390731,medium
0.894552,0.950459,0.909430,0.570187,0.352389,1.229542,1.356365,0.099534,0.470501,2.884413,1.146658,0.483710,2.944947,2.518243,1.568690,1.858730,2.507292,2.889590,very_high
0.799855,0.581622,0.190129,0.861844,1.212433,1.805552,1.804388,1.048223,2.077732,1.603093,2.696018,0.045667,2.210704,2.745461,2.306492,2.356159,1.932116,2.547448,very_high
0.425214,0.436614,0.821250,0.477110,0.673844,1.924583,0.771465,0.065671,0.279566,1.135061,0.731890,2.102407,1.416965,1.562671,1.420803,2.535137,2.515091,2.662951,medium
0.022469,0.580089,0.544631,0.994564,1.170972,1.307206,1.558208,0.936819,2.813377,2.286115,0.857307,1.650419,1.834110,1.190436,2.570540,1.951117,1.957484,2.089965,very_high
0.268677,0.516698,0.077857,0.679172,0.631307,1.676318,1.449579,1.770566,2.480059,1.573557,0.367232,1.952391,0.320210,1.506856,1.221623,1.428002,2.473247,1.609172,low
0.541634,0.758776,0.955448,0.074075,0.173879,1.050404,0.119052,0.723181,2.572517,0.039488,2.277357,2.439554,1.681235,1.208017,2.790301,2.546617,2.760220,2.355474,very_high
0.633478,0.282496,0.246961,0.992832,0.445900,0.416654,1.163017,1.864901,2.720006,2.208713,1.786648,1.302683,0.220983,1.644844,2.680843,1.640703,2.781083,2.423942,very_high
0.257888,0.353050,0.859645,0.407894,0.376117,1.049377,0.260379,1.261217,1.225815,2.196653,1.827199,0.373546,1.634566,2.076397,2.357615,1.350222,1.909157,2.350716,medium
0.139356,0.894094,0.168810,0.287403,0.856039,1.110165,1.934638,1.868311,2.540102,0.495446,0.655411,2.819950,1.658087,2.947362,1.134829,2.263280,2.718685,2.893418,very_high
0.834930,0.946457,0.853943,0.557879,1.316568,1.484915,1.622815,1.514333,0.474184,2.869980,1.953505,1.635786,2.623316,1.798741,1.417138,1.180907,1.202915,1.734358,high
0.984402,0.892558,0.013229,0.304308,0.527612,0.439766,0.219448,0.206870,0.064925,0.671724,2.296375,1.845882,2.175173,1.440080,2.718723,2.942705,1.203639,1.079315,low
0.525690,0.419448,0.511780,0.086458,0.024140,0.736621,0.243504,0.462303,2.354674,1.373248,1.073666,2.800234,0.748657,1.333603,1.243949,2.264795,2.096534,2.816889,medium
0.171679,0.780366,0.769443,0.001428,1.037875,0.728055,1.188948,0.788341,0.224390,0.344208,2.404041,2.794751,2.665278,1.346080,1.311864,2.971791,2.303689,1.320998,medium
0.272307,0.476336,0.934796,0.449583,1.211519,1.918879,0.689778,0.340214,2.965574,1.809847,1.046372,1.716284,1.719728,1.385195,2.088007,1.677787,1.305988,2.394637,high
0.018391,0.497540,0.909202,0.836863,1.925741,0.887890,0.069812,0.989823,2.024389,1.126353,2.274415,0.892834,1.819138,2.524534,1.548355,2.942410,1.944360,2.746409,very_high
0.914299,0.204680,0.819625,0.572315,1.178942,1.510188,1.083283,0.942736,2.260349,1.059520,0.101190,2.991341,0.506944,1.122055,1.444151,1.291124,1.188725,1.620283,low
0.117751,0.591130,0.888191,0.999207,0.942345,1.501623,0.775690,1.912518,0.737412,2.480931,1.653494,2.042451,2.573321,2.994805,2.151627,1.081390,2.204199,2.660830,very_high
0.576516,0.186136,0.199220,0.286847,1.146803,0.531088,0.202153,0.867456,2.021596,0.028685,2.908580,1.225310,2.792895,2.045373,1.745153,1.065968,2.710188,1.664116,medium
0.274055,0.331565,0.284184,0.280455,1.855801,1.143739,1.603841,1.571254,0.129660,2.393840,2.943734,1.679510,2.324972,2.088544,1.281120,1.929741,2.475278,2.588516,very_high
0.554178,0.855030,0.288969,0.159749,1.656756,1.788606,1.830154,1.883821,2.513477,1.714346,0.845258,1.247502,2.822257,1.715128,2.069708,1.166008,1.756583,1.139660,high
0.651420,0.207076,0.377054,0.164064,0.645957,0.950395,1.513188,1.753978,0.508872,2.958296,1.324197,2.664915,0.906900,2.380511,1.774025,2.024336,2.987588,2.310486,very_high
0.829742,0.071158,0.393321,0.285187,0.474509,1.890235,1.644845,0.417335,2.092074,1.768330,0.188934,1.447498,2.583358,1.942913,2.469034,1.655001,2.325870,2.354276,high
0.206421,0.069008,0.544555,0.792840,0.525267,0.428916,0.432981,0.992060,0.673442,0.166137,2.620024,2.470585,1.466679,1.658123,1.205511,1.671258,2.630497,1.982852,low
0.010996,0.940785,0.159880,0.905757,1.008842,0.148318,0.527146,0.695480,0.205360,0.151936,1.705716,2.520529,0.491752,1.530277,2.241226,2.271218,2.339395,2.374182,low
0.136886,0.506920,0.691247,0.975087,1.488099,1.782908,0.417055,0.799717,1.444481,2.649459,1.155302,2.472997,2.006402,2.851302,1.872987,1.326196,2.978833,2.846367,very_high
0.900019,0.409412,0.167567,0.232290,1.006438,1.695362,1.530127,0.721614,0.507859,2.523642,0.338312,2.166566,2.052361,1.581979,1.812124,2.533107,2.642720,2.467710,very_high
0.873890,0.810879,0.310308,0.881298,0.135593,1.985180,1.895834,1.652718,2.188332,1.037670,2.840302,2.564633,0.860774,1.872787,1.464575,2.164062,2.038846,2.922592,very_high
0.597413,0.835826,0.503345,0.328255,1.447161,1.358787,1.433674,0.904278,0.712698,1.854097,1.590657,1.161689,0.082480,1.700683,1.060852,2.829889,1.733759,1.897225,low
0.600517,0.332191,0.796441,0.112841,1.611940,1.873376,1.762934,1.047389,1.027418,1.468774,0.848784,0.343990,0.599542,1.172358,2.695378,1.729681,2.364310,2.056581,medium
0.665037,0.693618,0.739469,0.870025,0.578996,1.653898,1.277398,1.964895,1.702318,2.901492,1.050645,2.527363,1.199333,1.371869,1.652820,2.965430,2.180444,1.527477,very_high
0.175371,0.771123,0.645534,0.636106,1.328251,1.688853,0.775320,0.119959,0.854905,2.849883,0.812092,1.494505,0.502689,1.379004,2.362182,2.151655,2.258701,2.971203,high
0.914412,0.654651,0.155773,0.164731,0.853184,1.138283,0.851523,0.975915,1.133964,2.951517,1.805429,0.382128,0.582090,2.387299,2.895175,2.946804,1.686024,1.110273,high
0.418771,0.151595,0.547045,0.429831,1.778239,0.764729,0.150643,1.548123,2.446865,2.599346,2.789891,0.345938,1.174172,1.813171,2.129981,1.054121,1.857457,1.717241,medium
0.383139,0.875883,0.087447,0.287258,1.690451,1.869116,0.062914,0.302324,0.537630,2.728655,2.570081,0.477727,2.885360,2.563935,1.794294,2.455953,2.116193,1.595394,very_high
0.518918,0.539095,0.377363,0.736795,1.050864,0.864234,1.390951,1.223063,0.246605,0.651836,1.381143,2.252920,2.292731,2.417902,1.536547,2.633243,2.678567,1.773023,high
0.046966,0.282472,0.413517,0.453416,1.383011,1.077639,0.876858,0.478930,0.985073,2.493020,2.479498,2.132570,0.959245,1.384100,2.868088,1.106347,2.525818,2.835436,very_high
0.166283,0.425228,0.039811,0.989280,1.766699,0.892229,1.104430,1.734808,1.273130,2.126571,1.269316,0.611456,2.854812,2.125834,2.364154,2.157939,1.237312,1.736076,high
0.738034,0.037571,0.273988,0.054745,0.991434,1.129637,1.115322,0.654199,1.627978,2.888360,0.756921,2.540770,1.936940,2.485818,2.330563,2.603885,1.491109,2.833953,very_high
0.082799,0.127867,0.955649,0.355015,0.626501,0.941010,0.554752,0.658126,1.117271,1.713785,2.950245,0.843884,1.366349,2.266086,1.852317,2.122077,1.053315,1.846678,medium
0.603152,0.765547,0.953633,0.481900,1.507332,0.095935,0.951785,1.196388,2.369735,0.255502,0.911663,2.378957,1.404901,2.200033,2.690097,1.127627,1.015921,2.709538,medium
0.245349,0.000012,0.352327,0.503134,0.440133,1.764096,0.941520,0.367126,0.117958,1.792197,0.971173,1.466418,1.232233,2.479222,2.427344,2.386894,1.448751,2.043500,medium
0.389296,0.416566,0.043100,0.315936,0.777062,0.888788,0.776854,0.569777,1.295303,2.059743,2.969079,2.194646,0.698976,1.113561,1.566367,1.121194,2.598642,1.622706,medium
0.288694,0.522510,0.179095,0.729240,1.731454,1.177887,1.641351,0.833264,1.146768,0.660963,0.401782,1.144163,1.159897,2.462844,2.199157,2.634938,2.809495,1.898700,high
0.355673,0.054634,0.392218,0.874747,1.448845,0.278376,0.902328,0.707276,1.942735,1.182340,2.281602,1.041422,1.583689,1.545311,1.860388,1.086068,1.783537,1.848762,low
0.719046,0.973078,0.947780,0.938719,0.807622,0.006776,1.207289,1.049754,2.898829,1.795510,2.807438,2.524079,1.584082,2.143745,1.013180,1.274795,2.126397,1.519828,high
0.297122,0.226125,0.141199,0.805093,0.429489,0.490580,1.791040,1.199280,1.531126,1.122317,1.535385,0.105907,2.285211,1.484610,2.615247,1.550215,2.412105,1.579277,medium
0.566405,0.304199,0.763516,0.850580,0.711937,1.409172,1.732467,1.133335,2.960631,1.124843,0.007565,2.924211,1.076394,2.677635,1.245661,2.266730,2.905873,1.372908,very_high
0.476050,0.303943,0.108683,0.550545,0.568208,0.198389,1.780844,1.308337,0.906748,0.399260,1.125177,1.944539,2.150394,1.961119,2.019909,2.952718,2.825864,1.672001,high
0.663671,0.230417,0.981258,0.825888,0.352179,1.817775,0.540010,0.615499,0.092604,2.822240,0.334707,1.297450,1.734276,2.285882,1.672452,1.235646,1.114385,2.248812,low
0.936830,0.001474,0.381616,0.303504,1.486666,0.430045,0.069965,0.252852,0.496990,2.251483,1.248563,1.884164,2.885536,2.588164,1.684178,1.285415,1.496332,1.773116,medium
0.732572,0.729345,0.775235,0.398479,0.504140,0.409187,0.522134,1.521615,1.185375,0.003730,2.370080,0.368223,1.155855,2.790631,1.954730,1.737741,1.098289,2.424646,low
0.214940,0.966845,0.342591,0.316913,0.908335,0.363016,0.557415,1.701561,0.949002,2.296840,1.316135,1.542157,2.703649,2.464124,2.994046,2.672438,2.233085,2.973956,very_high
0.031183,0.224293,0.627669,0.467387,0.771719,0.027963,1.818721,0.514012,0.291162,2.219385,1.295775,2.955287,2.461928,1.297537,1.816759,1.934462,2.420987,1.754202,medium
0.262264,0.663047,0.192016,0.285580,1.964155,1.543611,1.298485,0.814184,1.297980,0.029193,1.670368,0.705808,1.912993,2.709065,1.364658,1.643221,1.616567,1.925278,low
0.595078,0.741896,0.146021,0.961611,0.782184,1.750069,0.163408,0.997138,1.014347,1.108813,1.745072,2.166834,1.963543,2.237156,2.227213,2.122408,2.707704,1.328220,high
0.051426,0.848425,0.938064,0.312845,0.159965,1.228325,0.270757,1.066654,0.367858,1.820243,2.568889,1.304914,0.253950,2.218900,1.472575,1.521046,1.905626,1.784431,low
0.496366,0.422629,0.917647,0.098045,0.179652,0.376400,0.311352,1.318980,0.888351,1.358252,0.925066,1.957374,2.850674,2.842681,1.211098,1.802320,2.996763,2.453665,high
0.596843,0.302931,0.887469,0.526817,1.181507,0.570556,1.260843,0.083206,2.659308,2.333958,2.465014,0.614662,0.320808,1.497663,1.100348,1.665210,1.000799,1.434810,low
0.334244,0.325295,0.625433,0.057099,1.198727,0.951853,1.470828,1.442954,0.906147,1.276375,1.697801,1.411395,1.689700,1.479175,1.045763,2.608282,1.218979,1.364108,low
0.770912,0.712621,0.808268,0.110543,0.837518,1.908692,1.719288,0.123942,2.141866,0.461589,0.901589,2.940278,0.990212,2.026387,1.862329,2.848511,1.603586,1.752750,high
0.106598,0.816779,0.069037,0.219389,0.863687,0.494703,1.881273,0.936577,1.836141,2.929247,0.885378,0.585861,1.289556,2.501726,1.853452,2.519144,1.051015,2.637299,high
0.075138,0.181614,0.334789,0.464350,0.107865,1.463292,0.403409,1.655342,1.281543,0.726120,1.083413,1.909335,1.830549,1.894481,1.371091,1.878167,2.564679,2.247314,medium
0.728189,0.370941,0.313703,0.433251,1.033093,0.878896,0.619545,0.902431,0.717077,2.153077,1.868080,1.726793,2.726554,2.267783,2.568038,2.008670,1.105544,2.915159,very_high
0.495491,0.901940,0.635645,0.799692,1.009479,0.595695,0.480646,0.298179,1.107044,0.429469,0.692435,1.695155,1.372701,1.905049,1.258541,1.250147,2.497959,2.809081,low
0.688402,0.806694,0.355958,0.739475,0.299099,0.911832,0.717523,1.970068,1.776322,0.987038,2.761001,1.845370,2.963189,2.220774,2.830634,2.493729,1.105137,1.302274,very_high
0.434827,0.984858,0.148507,0.426318,0.207679,0.142413,1.829330,1.778571,1.052260,1.326083,1.724738,1.506714,1.778436,2.644525,2.175152,2.192951,1.505455,1.085106,medium
0.246402,0.754248,0.596467,0.333704,0.247145,1.597375,1.150225,1.542627,0.644689,0.576696,2.760047,0.050792,0.481662,1.360953,1.055233,2.804880,2.682554,1.798189,low
0.819102,0.393195,0.814384,0.316469,0.202056,0.486604,1.476384,0.823023,0.349388,1.349879,0.139213,2.700290,0.570028,2.390757,2.925945,1.401222,2.902191,2.044159,medium
0.799416,0.590638,0.382123,0.773995,1.219416,1.450824,0.980238,0.367691,2.639301,0.471488,1.027834,2.480936,2.148333,2.574851,1.615883,2.519452,1.829053,2.031141,very_high
0.694696,0.661014,0.132269,0.052072,0.392965,0.136697,0.057716,1.882822,1.320939,1.677020,0.068423,0.522503,0.151193,1.894223,1.899950,2.369343,2.939878,1.268215,low
0.272145,0.078456,0.196688,0.012822,0.502860,1.910197,0.128391,1.064702,1.875625,1.991140,0.816755,1.239820,1.441025,1.646467,1.568537,1.531691,2.253762,1.249635,low
0.590231,0.544497,0.237483,0.795544,0.347144,0.386030,1.075846,1.704711,1.471231,0.187303,2.586019,2.311647,0.444657,1.027089,2.456843,2.334757,1.831670,1.093722,low
0.360974,0.709321,0.299898,0.477146,1.915671,1.765484,1.437578,0.684190,2.617700,2.613396,0.109829,2.940187,1.299656,2.594210,1.971360,2.848747,2.605603,2.701720,very_high
0.091582,0.167321,0.642795,0.130881,1.709235,1.618946,0.430661,0.670577,1.640805,0.555423,1.308441,2.853411,2.249752,1.655877,1.264746,2.836872,1.590657,2.895488,high
0.917314,0.780632,0.600945,0.235566,0.460990,1.935720,1.443819,1.971081,1.442344,0.676087,0.352701,2.698078,1.376439,1.714619,1.208408,2.439253,1.531593,1.231370,low
0.136819,0.583773,0.696080,0.932504,0.655133,0.955781,1.621332,1.043666,2.773803,1.984050,1.250522,0.475122,0.490353,1.672012,2.450751,1.096146,2.313095,1.426245,medium
0.950237,0.952222,0.362502,0.859503,0.419786,1.454795,0.823795,0.281391,2.159069,1.406253,2.516555,2.743425,0.755776,1.997479,1.474163,2.744529,1.780975,1.179726,high
0.446006,0.042422,0.823998,0.709785,0.983752,0.741421,1.492838,0.439349,0.334650,1.498187,1.869213,2.635335,1.102619,2.404999,1.275587,2.315557,1.271836,2.755004,medium
0.185133,0.265326,0.204088,0.482225,0.039221,0.368736,0.808060,0.963889,0.533113,0.384465,2.210269,1.130850,0.208684,2.543726,1.998855,1.620869,1.133928,2.917417,low
0.541901,0.601554,0.469041,0.520324,1.342736,0.886152,1.356701,0.084942,2.361369,2.417207,1.047312,1.183568,1.753013,1.785141,2.605531,1.374501,2.575685,1.523593,high
0.872946,0.296560,0.800939,0.975245,1.046316,0.331498,1.527994,0.925068,2.507554,1.851163,2.833193,1.379727,1.822601,2.326204,1.557565,1.232408,2.351821,1.607168,high
0.732225,0.714424,0.180159,0.965770,1.797278,1.964089,1.983853,0.837882,1.635572,0.406146,2.127786,1.968527,0.186456,2.441369,1.552863,1.100474,1.823596,1.725339,medium
0.806561,0.759005,0.109863,0.215269,0.328785,0.192493,0.690793,1.558673,1.663366,1.121998,1.265396,0.782507,1.206934,1.593835,2.667763,2.508206,2.792455,2.004928,medium
0.658783,0.102516,0.883684,0.811105,1.608218,1.178423,0.822082,0.709884,1.895799,2.431230,1.279394,0.068845,1.242002,1.193243,1.295668,1.471686,1.821714,2.364922,low
0.692277,0.513854,0.342930,0.197243,1.583922,1.252928,0.331240,1.965098,1.317347,1.705065,2.756053,0.423689,1.001459,2.789331,2.233455,1.048506,2.420591,2.008781,high
0.849196,0.508891,0.683870,0.213537,0.254362,1.076159,0.408146,0.361540,2.040597,0.325946,1.729214,1.320348,1.673219,2.354232,2.910027,1.794541,2.818231,2.902003,very_high
0.249668,0.369281,0.025349,0.676093,0.797118,1.324372,1.386790,1.181973,0.325444,1.118331,2.119138,0.846008,1.037872,2.296221,2.682606,1.965214,2.681431,1.199787,medium
0.489425,0.932925,0.690047,0.405001,0.340305,0.232362,1.834091,0.179399,2.883838,0.728083,1.251106,2.293550,1.249228,1.117805,1.123630,1.338460,2.022210,2.597211,low
0.221209,0.827506,0.316101,0.931544,0.509441,1.110037,0.789210,1.467728,2.250464,1.552397,0.671078,0.320070,2.392571,2.635746,1.639822,1.088097,2.361273,1.668966,medium
0.987668,0.697209,0.055741,0.089010,0.526492,0.574425,0.359689,1.989507,1.893523,2.530083,2.170678,2.752396,0.486328,2.132108,1.284749,1.378251,1.827332,1.755095,medium
0.944059,0.714327,0.609813,0.511526,1.112473,1.880352,0.570199,1.638277,0.948966,1.308801,1.823471,2.685982,1.857344,2.695769,2.898481,2.358206,2.294394,2.417659,very_high
0.039427,0.461716,0.240804,0.918522,0.822822,1.524143,0.910103,1.111407,0.482866,1.300026,1.504029,2.726270,1.516783,2.949122,2.971883,1.164487,1.515105,2.858754,very_high
0.705575,0.920995,0.386807,0.904114,1.895466,1.945029,0.581301,0.969483,1.228029,2.716053,1.872063,2.218830,0.915215,2.914201,1.469986,2.110074,1.869484,2.432402,very_high
0.925248,0.694595,0.080581,0.156529,0.252740,0.075112,0.467158,1.670060,1.984730,1.728556,0.624857,0.321000,2.182604,2.712179,2.339398,1.292824,1.419091,2.551721,medium
0.180575,0.728981,0.147163,0.366638,1.947384,0.570266,1.471969,1.871948,1.901129,1.698573,2.381816,1.314413,1.653565,1.021895,2.683263,1.391378,1.076370,2.501558,high
0.567945,0.861691,0.297977,0.619121,0.461277,0.390845,0.015690,1.978413,1.147923,0.785730,2.844488,0.394216,1.432085,2.771454,1.467361,1.786156,2.177080,1.641957,medium
0.915488,0.274072,0.089760,0.159395,1.545748,0.022309,1.078461,0.793078,1.839859,1.823168,2.673309,2.963098,2.003008,1.150125,1.375361,1.201651,2.728859,2.513861,high
0.033946,0.807071,0.910826,0.968022,0.677940,0.484651,1.587534,1.981835,2.441245,1.727731,0.964307,0.999115,2.406871,2.702388,1.022422,1.346407,1.051157,2.569042,medium
0.697420,0.195241,0.006047,0.914749,0.286163,1.357552,0.532457,0.311853,0.078854,1.190554,1.218017,1.755992,2.918006,1.560348,1.823925,1.697905,1.392059,2.066801,low
0.297349,0.345342,0.483860,0.166950,1.715778,0.462178,1.206583,0.507100,1.351863,2.972087,2.425207,2.338179,1.888051,2.220137,2.798875,1.659338,1.920370,2.073512,very_high
0.924396,0.335610,0.123247,0.121155,0.617722,1.018007,1.337800,0.178032,2.275666,2.645673,1.785351,2.761848,2.623320,1.076136,2.805959,2.498543,2.331794,2.519442,very_high
0.971058,0.978525,0.307679,0.085408,1.317711,1.775636,1.310049,0.543477,1.638433,2.248759,1.643743,2.266643,0.003275,2.542363,1.255486,1.149565,1.342458,2.634062,medium
0.944266,0.856537,0.926060,0.909444,1.132887,1.387516,0.891699,1.535875,1.954428,1.612037,2.779926,2.023511,1.590707,1.223412,1.408705,2.720901,1.113390,1.674391,high
0.474214,0.701170,0.161695,0.193624,0.943513,0.789258,0.693156,1.705849,1.550029,1.386179,1.608075,1.397945,0.643943,1.821376,1.816095,2.632464,2.038097,2.603124,high
0.862043,0.727057,0.965832,0.416285,0.991639,0.744938,1.671848,1.557785,2.975624,0.554692,1.544816,1.816200,0.282577,2.634892,2.561249,2.531983,2.637419,2.628418,very_high
0.844549,0.562073,0.205794,0.448851,1.464476,0.911472,1.516892,1.262132,0.163865,0.917212,0.126056,0.282491,1.595913,2.390698,2.223703,1.618745,1.070470,1.468251,low
0.319100,0.947091,0.741566,0.599011,0.175546,0.354083,0.642510,1.027933,1.473134,2.321882,0.208251,2.651768,2.240480,1.012085,2.027699,2.645764,1.698739,2.433901,high
0.828915,0.496259,0.546677,0.071735,1.336361,1.268002,0.206038,1.417409,0.274250,1.361247,0.022261,1.631332,1.236818,1.806065,2.183864,1.365604,2.327029,1.373068,low
0.037008,0.380518,0.884479,0.226759,1.791624,0.728306,0.143615,0.781667,0.479357,2.646809,2.739733,0.120405,2.010322,1.083855,1.192399,1.248818,1.261484,1.186098,low
0.596270,0.163035,0.553993,0.931490,0.115576,1.704731,0.188552,1.682617,1.149115,0.443733,1.225160,2.759706,1.469158,2.347000,1.955327,1.089913,1.471894,2.149086,medium
0.230009,0.786206,0.534559,0.908410,0.281307,1.513105,1.165739,1.354380,0.466620,1.525041,1.405684,1.467906,1.311258,2.937897,2.984127,2.878621,2.070985,2.817304,very_high
0.120567,0.734444,0.195458,0.781291,1.433264,1.221026,0.103324,1.395609,2.891061,1.940897,2.536161,2.605767,0.870770,2.310523,1.176892,1.616022,2.906463,1.070918,very_high
0.076953,0.384355,0.166229,0.019401,0.874563,0.728404,0.673854,1.071872,2.840369,1.550545,1.827739,2.570664,1.147781,1.448745,2.038493,2.835236,1.574685,2.653003,very_high
0.696289,0.025193,0.916489,0.327007,0.807097,0.419864,1.506399,1.770458,1.008329,2.667681,1.828505,2.447255,1.049387,1.710466,1.591299,1.545227,1.975055,2.012942,high
0.339875,0.838997,0.327838,0.627959,0.273933,1.552304,0.588696,0.504029,1.919243,2.968690,0.889603,0.184209,1.938562,2.953301,2.079827,2.815132,1.799862,2.721791,very_high
0.724767,0.011418,0.372082,0.275190,1.013540,0.972818,1.526616,0.762295,1.601260,0.347504,2.501725,0.741200,0.348056,1.448105,2.147638,2.807858,2.794793,2.686954,high
0.065356,0.703700,0.759824,0.909587,0.253091,0.449500,1.490934,1.555285,2.446761,0.389865,0.497490,2.626644,0.277909,2.123058,2.154946,2.847352,1.143780,2.750574,medium
0.315290,0.970257,0.338823,0.633889,0.953241,0.390349,0.491654,0.985498,1.882337,0.390972,0.159449,2.696973,1.980039,1.800908,2.704418,1.992307,2.132295,2.537748,high
0.539491,0.437661,0.952062,0.071907,1.527231,0.330802,1.457644,1.778428,0.000757,2.043531,0.574810,1.374207,1.638894,2.536631,1.779495,2.731893,2.692239,2.685985,very_high
0.790723,0.234973,0.737928,0.909006,0.516529,1.554322,1.495553,0.692799,2.289523,1.118028,0.803212,1.320124,1.290600,2.734779,2.032708,2.901532,2.976235,1.352050,very_high
0.318753,0.704871,0.597429,0.957767,0.961572,0.457974,0.794908,0.738660,2.240544,2.199944,0.846933,0.525422,0.457329,1.681675,1.021857,1.649234,2.397451,1.607706,low
0.625891,0.817128,0.880895,0.077712,1.984032,1.053285,0.420841,1.777472,1.529168,1.216414,2.011541,2.905232,1.233081,2.320793,2.579101,1.837749,1.759871,1.484972,very_high
0.885978,0.546430,0.049606,0.532360,1.373301,0.903093,1.042542,0.928741,2.708757,1.882820,0.653474,0.639415,2.369195,2.098095,1.518975,2.438480,1.823649,2.484857,high
0.615863,0.967035,0.257063,0.303364,1.682714,1.159222,1.842795,1.032249,2.725339,2.309574,2.029975,0.572810,2.668864,1.556889,2.633110,1.600720,1.703364,1.307286,very_high
0.232959,0.051669,0.465036,0.392839,0.829695,1.754310,1.279233,0.665527,1.571735,1.644648,0.273397,1.982187,2.107730,1.543882,1.531277,2.507619,2.207226,1.364456,medium
0.024401,0.504796,0.226979,0.179651,1.535722,1.735495,0.345845,0.553340,1.823965,1.618511,0.441607,0.728533,0.179737,2.077263,1.021577,1.147784,2.478812,2.757929,low
0.870099,0.718454,0.743905,0.578072,0.081018,0.902152,1.365514,1.311897,2.989566,0.264703,1.526464,2.816315,2.011229,1.308006,1.309663,2.046997,2.638935,2.411764,high
0.021269,0.862640,0.919208,0.957979,0.245822,0.030733,0.854406,0.239681,0.896461,1.232345,2.765687,0.032721,0.722957,2.621620,2.971366,1.244627,1.833186,2.750760,medium
0.874702,0.179256,0.423770,0.503073,0.406141,0.852888,1.183058,1.758545,0.973852,1.637331,2.578703,0.017260,0.945754,1.138010,1.639602,1.586647,2.433417,1.278711,low
0.528937,0.800003,0.342133,0.082915,0.803904,1.212387,1.468128,1.558406,0.548322,1.385942,2.906260,1.514630,0.587620,1.189149,1.217648,1.517251,2.832445,1.797961,medium
0.939068,0.552707,0.961551,0.620001,1.691490,1.115530,1.029895,0.381497,2.687601,2.702346,1.951437,1.464187,2.327267,1.684453,1.237518,2.677864,2.841650,1.566302,very_high
0.798783,0.396554,0.444852,0.340223,0.692532,1.302672,1.627968,1.388040,2.233465,2.719592,2.027445,0.490092,1.945806,1.236184,1.620685,1.387035,2.408058,1.019362,medium
0.997934,0.131715,0.489048,0.855925,1.309242,0.308151,1.444311,1.205266,0.316929,2.465752,1.875069,1.483559,1.835505,1.951400,1.075290,2.616896,2.273804,1.569046,high
0.350712,0.865296,0.351650,0.434678,1.418629,1.293070,1.230147,0.369070,2.945302,1.125894,1.868457,1.234983,2.003918,1.799352,2.022977,2.587921,2.063052,1.759167,very_high
0.767188,0.157273,0.909548,0.192840,1.172365,0.365303,0.301586,0.546407,2.192885,2.151897,0.441361,2.670989,0.710317,2.443620,1.427482,1.997766,1.366395,1.184439,low
0.401931,0.309788,0.568955,0.191106,0.714484,1.501048,1.671898,0.817973,2.551566,1.185865,1.631217,0.027762,1.333933,2.906008,2.038621,1.467687,1.247259,2.132975,medium
0.479876,0.290046,0.762175,0.768764,1.154107,0.678175,1.871811,1.398485,0.144452,0.697781,1.158204,2.928809,1.899761,2.507117,1.281528,1.453793,1.971422,1.766345,medium
0.627505,0.871414,0.811807,0.265588,0.684531,1.419791,0.273930,1.277447,1.514883,1.028708,1.327612,1.873178,1.909782,1.358897,1.859714,1.929849,1.318888,1.092923,low
0.873677,0.672703,0.341849,0.767233,0.167747,0.095731,0.976482,1.064470,2.095795,0.212894,1.570802,0.455530,2.375556,2.871043,2.195834,1.017618,2.154000,2.407958,medium
0.984083,0.796681,0.433694,0.205887,1.985608,0.815720,0.517777,1.536821,1.628840,0.995333,0.385189,0.140280,0.861312,1.784267,1.124000,2.062702,2.291405,2.458560,low
0.768273,0.250468,0.848472,0.321686,0.254365,1.410069,1.509047,1.515875,1.999942,1.382227,1.078463,1.614317,2.311008,1.948379,1.797499,2.905559,2.051231,2.668943,very_high
0.417767,0.624874,0.363255,0.465487,0.144697,0.453741,1.443259,1.235718,2.453622,2.866443,0.190349,0.704670,1.320553,1.843152,1.605048,1.309414,1.072853,1.971081,low
0.421357,0.571746,0.793935,0.943196,1.757061,1.590574,0.281770,1.573980,1.123011,0.940232,2.939004,0.903497,2.010518,1.561094,1.480720,2.146691,1.115456,2.937318,high
0.737582,0.832830,0.940992,0.931731,0.603669,1.261559,1.754055,0.668527,2.546006,2.707361,0.355584,0.735396,1.367158,2.790089,2.209069,2.923557,1.226682,2.828128,very_high
0.238777,0.906087,0.623210,0.206872,1.300594,1.175124,0.361946,1.762499,0.488748,0.686575,0.775574,1.950517,2.845831,1.664478,2.177084,2.721044,1.307292,2.102703,medium
0.110474,0.012157,0.741627,0.358219,0.658011,0.707098,1.594518,1.229820,0.812658,0.572907,2.673879,1.660587,0.537907,2.157193,2.261400,2.700760,2.979765,1.889904,high
0.354622,0.674020,0.805097,0.149399,0.782909,0.964903,0.913961,1.644727,0.130037,1.556986,1.448130,0.233923,2.025015,1.480067,1.317765,2.643700,1.688990,1.006069,low
0.287239,0.051836,0.845040,0.509985,0.524226,1.194699,0.656545,1.092558,1.093280,2.017534,0.406912,1.579580,1.729605,2.594751,1.571418,1.618047,1.583947,2.421989,medium
0.296308,0.548859,0.395053,0.460583,0.686088,0.944924,0.316479,0.436876,1.139729,0.132997,1.152692,2.373569,0.518193,2.548397,1.419358,2.781234,1.104533,2.129909,low
0.233608,0.287633,0.051263,0.900760,0.821401,1.396627,0.335229,1.084820,2.415812,0.663198,0.347604,0.243584,0.198019,1.592624,2.081007,2.882681,2.270641,2.875088,medium
0.042093,0.306777,0.401876,0.930005,1.440832,0.867394,1.323781,0.742223,1.959392,1.367051,0.600648,2.669217,2.397433,2.363108,1.922131,1.991585,2.304382,2.188464,very_high
0.017874,0.352959,0.673756,0.383567,1.023072,0.404546,1.100861,1.394998,1.310168,0.993013,0.156090,1.734920,0.472354,2.407747,1.660587,1.709142,1.350897,2.985712,low
0.987722,0.621292,0.450350,0.491738,1.887130,0.427868,0.244171,0.951588,1.956342,2.137863,1.314682,2.851873,0.559520,2.125023,2.572030,1.828458,2.838483,2.707639,very_high
0.427773,0.334050,0.748963,0.896236,0.083761,0.011608,0.225396,1.672226,0.158350,1.533482,2.419908,0.444424,2.935303,2.201197,1.187947,1.668413,2.600987,2.907196,medium
0.384327,0.732699,0.356982,0.806708,1.006137,0.601915,0.144621,1.356145,0.540815,0.481077,1.757908,2.980695,2.151783,2.148909,2.949793,1.424837,1.460639,1.655326,medium
0.679647,0.404527,0.634744,0.003656,1.168450,1.497835,1.487535,1.369089,1.880844,2.683396,1.819036,1.932819,0.751461,1.163729,1.233088,2.236897,1.971699,1.298672,medium
0.218254,0.068353,0.186420,0.320060,1.840394,1.588325,1.423764,0.434311,1.924100,0.878717,0.601752,1.702483,1.772847,2.340531,2.546142,2.125194,1.916782,2.593744,high
0.949961,0.783760,0.749369,0.421774,0.098317,0.404935,0.116862,1.968500,2.322404,2.193393,1.031682,1.545839,1.602336,1.939550,1.736460,1.925170,1.697041,2.572394,high
0.786345,0.285758,0.545696,0.229716,1.146999,1.918088,1.120540,1.683350,1.208999,2.339747,2.535726,0.070963,2.533420,1.876915,2.730524,1.191691,2.635269,1.422898,very_high
0.089411,0.432767,0.204064,0.199572,1.707260,1.004806,0.169352,1.578010,2.167662,2.889473,0.263569,2.818918,2.187962,2.719998,1.148340,2.593786,1.218529,2.529489,very_high
0.417581,0.685444,0.291911,0.037785,0.483855,1.833957,1.807492,0.660430,2.051941,1.495522,2.573792,1.931983,2.495163,1.046453,1.749443,1.349867,1.830628,2.163947,high
0.879118,0.332456,0.748609,0.643370,1.752585,1.413531,1.814235,1.071263,2.890180,1.847507,1.451070,0.274879,0.634520,1.502630,1.670887,1.229124,1.856062,1.219050,low
0.944732,0.056586,0.482601,0.262510,0.038087,1.444867,1.396466,0.274206,0.645391,1.004629,2.511442,0.062857,1.920658,1.242807,2.986314,2.246143,1.937451,2.003567,medium
0.467402,0.373921,0.216031,0.052347,1.464909,0.170087,1.852378,1.076952,1.655039,2.034538,0.954019,0.152351,0.120723,1.070682,2.971098,1.797289,2.722700,2.862276,medium
0.613411,0.944449,0.967271,0.230979,1.866226,0.439982,1.622906,0.291778,1.805293,1.390150,1.016529,1.828187,0.206822,1.551354,1.379608,1.119617,1.436334,2.012915,low
0.167034,0.641734,0.715125,0.801914,1.314395,0.017630,1.657077,1.106076,2.995944,1.312957,2.254815,1.842046,2.140581,2.976953,2.259894,1.711137,1.205846,2.577398,very_high
0.991169,0.671479,0.957135,0.851489,0.878058,1.432255,1.139416,1.297444,0.603552,2.566403,2.354989,1.499002,0.073260,1.540458,2.071039,2.543561,2.235617,1.057820,medium
0.231672,0.632282,0.427105,0.483066,0.089762,0.688877,0.612118,0.780392,1.569654,0.150507,0.688934,0.920297,1.739295,2.327412,1.308747,2.230498,1.347669,2.456163,low
0.942732,0.198992,0.475100,0.416071,1.840228,1.573305,0.435598,0.997090,1.038556,2.645887,2.918614,1.595228,2.521215,1.236598,1.335559,1.725572,1.149864,2.893675,high
0.649647,0.418334,0.897955,0.977854,0.940592,0.677872,0.654400,1.751307,1.577679,2.556210,0.253470,1.548905,1.139825,2.203695,2.978503,1.383610,1.853298,1.999056,high
0.607737,0.750940,0.525049,0.200565,0.057993,1.638668,1.256991,0.217126,0.696386,1.519099,0.205509,0.058247,0.134521,2.968963,1.905460,2.263591,1.439293,1.675420,low
0.512689,0.101373,0.707279,0.215359,1.379642,0.261397,0.345313,1.583466,0.142837,1.470609,1.786513,0.847408,2.141542,1.583675,1.251603,2.775111,1.722433,2.293301,low
0.230670,0.277853,0.252173,0.291867,0.963675,0.346746,0.517280,0.341509,1.717696,1.085422,2.168222,0.159556,2.789059,2.696151,1.429580,2.292545,1.519422,2.832522,medium
0.176528,0.276319,0.446726,0.172757,0.248691,0.681753,0.936122,0.073416,1.007563,2.982521,2.882658,2.700464,2.151514,2.995143,1.536696,2.625808,1.185273,1.353539,very_high
0.220486,0.432019,0.123450,0.379366,0.428544,0.816975,0.466100,0.371149,0.545824,0.333508,1.214837,2.175669,1.735342,2.177108,2.021835,2.043056,2.120694,1.807388,low
0.186438,0.980369,0.205980,0.910834,0.128981,0.697406,1.177287,1.530086,0.971807,1.770646,0.075874,2.988346,0.690086,1.618802,1.671096,2.435942,1.054037,1.312581,low
0.779584,0.067503,0.000943,0.615348,1.148587,1.527294,1.846352,0.810252,0.147841,2.045045,1.808689,0.906514,0.046127,2.347063,1.910024,2.792454,2.932751,1.993308,high
0.350125,0.518701,0.039265,0.411947,1.244059,0.193903,1.496179,1.745041,2.851327,2.802990,0.869088,2.635458,2.084016,2.689696,1.332999,2.546358,1.682661,2.080844,very_high
0.057843,0.179365,0.977284,0.934411,1.011485,0.702434,1.332853,1.049415,1.743444,2.340610,1.298841,1.809163,0.693079,1.342700,1.653457,2.819708,2.390315,2.888407,high
0.969103,0.970677,0.242354,0.048464,1.634204,1.674480,1.165443,0.044501,2.444306,1.931542,1.465408,1.359376,2.574488,1.905032,1.140633,1.862279,2.620726,1.825030,high
0.883786,0.113304,0.663311,0.210276,1.722018,0.133594,0.975896,1.433427,1.269355,0.350437,0.193538,0.667719,1.399092,1.638375,2.779421,2.808441,1.558210,2.133913,low
0.927752,0.403601,0.839100,0.565889,1.231249,1.884687,0.373128,0.220466,2.709944,1.121201,1.457945,2.215176,1.591907,1.566718,1.397505,2.243134,2.497477,2.770525,very_high
0.994908,0.737885,0.550660,0.615553,0.025513,1.972634,1.789421,1.578759,1.449955,0.416525,1.278959,2.712422,2.261810,2.721643,2.513800,2.740098,2.664842,1.642810,very_high
0.173895,0.704554,0.153145,0.039558,1.390459,0.177136,0.497072,0.336205,1.721836,2.643638,2.137633,0.705925,2.338292,1.843308,1.699104,1.078753,1.482634,2.348328,medium
0.396242,0.422729,0.728116,0.403039,0.835998,0.582545,0.182618,0.690893,1.475382,2.248863,1.936998,0.526171,1.927952,1.678153,1.948795,2.315705,2.984989,2.514324,high
0.758238,0.346524,0.600251,0.649154,1.131115,0.744801,1.500030,1.522543,2.199835,2.272610,0.555647,2.088666,2.815295,2.207021,1.582522,2.695950,1.041377,1.661056,very_high
0.696021,0.397612,0.731251,0.698071,1.298161,1.552783,0.351231,1.908463,1.699968,1.956770,0.618417,2.930919,2.946895,1.438803,2.392883,1.348404,1.434001,1.328682,high
0.153896,0.264276,0.769747,0.638140,0.700473,1.191854,0.743792,0.742868,0.814797,1.521131,0.753019,2.249865,2.840656,1.459787,2.689093,2.323574,2.560042,2.005819,high
0.815833,0.205333,0.975410,0.320563,1.834197,1.288731,0.056570,1.658800,0.436619,0.449913,0.536851,0.853742,2.472538,2.040577,1.572540,2.649909,1.388262,1.713603,low
0.224441,0.483040,0.573563,0.093520,0.267950,1.515020,0.274136,0.381585,1.818373,0.989085,1.971640,1.259866,2.116876,1.818545,1.484435,1.575899,2.396520,1.532925,low
0.223818,0.268534,0.341641,0.427112,1.343024,0.235958,0.346407,1.614360,1.467540,0.410747,2.983291,1.152953,1.989978,1.589965,2.362881,1.810493,2.711061,2.946843,high
0.536974,0.287462,0.648465,0.128754,0.008719,1.666419,0.108820,1.314988,0.287927,2.174739,1.956325,2.556285,0.311251,1.107902,1.390306,2.139035,2.918429,2.004306,medium
0.592940,0.656756,0.068441,0.947624,1.849302,1.411240,1.313314,0.385487,1.186852,0.480686,1.820045,2.314112,0.814453,2.041548,2.279680,2.038335,1.948495,2.712955,high
0.580086,0.968537,0.897397,0.475171,0.225008,1.154683,1.674016,0.605008,1.544329,2.106341,1.229784,1.766926,0.017065,2.633218,1.188856,1.078379,2.942218,1.390635,medium
0.091487,0.603637,0.119381,0.317259,0.189768,1.779471,0.746631,0.263542,2.480680,2.076766,0.937741,0.824877,0.412230,2.702754,2.240274,1.197344,1.823245,2.878886,medium
0.877461,0.076979,0.327843,0.766304,0.666015,1.400613,1.749153,0.765934,0.228303,1.377913,2.733221,2.813966,1.317688,1.470880,2.026813,1.200933,1.436256,2.588863,medium
0.265600,0.075584,0.815745,0.497949,0.747133,0.403400,0.426693,0.407297,1.045486,0.405686,2.907006,1.959946,0.439610,2.199282,1.227811,1.524536,2.027844,2.617384,low
0.129515,0.951423,0.597312,0.310034,0.428600,0.859491,0.650781,1.287996,2.467968,0.944402,1.490329,2.911430,2.704990,2.711763,2.298207,1.491728,2.299646,1.779530,very_high
0.888748,0.297291,0.393636,0.811968,1.170243,0.988086,0.301474,1.989010,1.945272,0.960279,0.870601,1.740351,2.417098,1.817452,1.893114,2.484445,1.915927,1.971274,high
0.955651,0.092067,0.473436,0.867152,0.885828,0.110435,1.241118,0.024018,0.869875,2.101155,2.310367,2.463578,0.214836,2.864274,1.434230,2.145489,2.133945,2.186709,high
0.862128,0.599045,0.854547,0.673008,0.068351,1.909275,0.839739,1.081840,2.536005,0.341229,0.397370,2.439316,0.746741,2.805957,1.706768,2.527952,1.832818,2.579531,high
0.809516,0.623649,0.340004,0.046964,0.639304,0.257155,1.226567,1.147333,1.479881,2.487206,2.296765,1.011986,2.457216,1.416268,1.984204,1.139792,2.049524,2.698114,high
0.655242,0.648505,0.869650,0.566323,1.620866,1.394923,1.523350,1.828418,1.495056,2.283022,2.456845,2.892062,2.409138,1.517930,1.183108,1.970428,2.905191,1.156091,very_high
0.550857,0.267402,0.088134,0.763295,1.379403,1.012462,1.091406,1.012011,2.929762,0.558921,0.374712,0.065824,2.836352,1.360884,2.915219,1.647551,1.999662,2.808125,high
0.086987,0.015111,0.776798,0.136503,1.449742,0.051264,1.255261,1.087403,2.841350,2.157493,2.930584,2.306133,2.992643,1.392109,2.331124,2.699879,1.506359,2.874993,very_high
0.408453,0.965015,0.847548,0.228671,1.396234,1.849495,1.870501,0.943306,1.075598,2.005540,2.956537,2.896671,2.928810,2.815724,1.205070,2.415578,2.517493,2.185775,very_high
0.372689,0.250893,0.181818,0.882495,0.621946,1.703674,0.598129,0.537809,0.421737,2.244362,2.810158,1.016725,1.230414,2.862276,2.645724,2.738517,1.675169,1.373501,high
0.259754,0.676026,0.430347,0.020122,0.199328,1.048516,0.718328,0.112058,0.977000,0.566786,1.488104,1.944332,0.750985,1.103794,1.645110,1.092854,2.632414,2.636830,low
0.723420,0.706630,0.165500,0.752727,0.544934,0.457885,1.435407,0.817315,0.091450,0.472771,0.738222,1.686670,2.275231,2.187207,2.193599,2.441647,1.113684,2.097175,low
0.495876,0.610007,0.706604,0.473773,1.663571,0.243246,1.222611,0.105183,0.062304,0.709452,1.746028,2.284522,0.897819,2.128463,1.554286,2.080017,1.664356,2.634393,low
0.081046,0.312907,0.535348,0.446772,1.960942,0.726785,0.357066,1.100985,1.186566,1.097615,1.259802,2.598534,2.419201,1.781095,2.466812,2.650000,1.188720,2.629616,high
0.220183,0.271096,0.635323,0.007097,0.987694,0.510857,0.752295,0.614587,2.823059,2.380995,0.617846,1.809134,1.601864,2.263395,2.446018,2.014321,1.170636,1.173459,medium
0.683259,0.597668,0.196487,0.819398,0.019401,1.013382,0.935676,1.067205,2.614072,2.213772,1.271029,2.447714,2.381782,2.894736,2.104087,2.080418,2.316779,2.214043,very_high
0.076131,0.866096,0.211746,0.359825,0.280090,1.932819,0.838780,0.268594,1.534329,2.776355,1.991670,0.936857,0.827640,1.340510,1.481851,1.103535,1.770670,1.966289,low
0.851207,0.946734,0.041497,0.540766,0.644161,1.149907,0.356550,1.865260,1.695679,0.175889,0.212740,0.685761,1.524082,1.240822,1.507408,2.337046,2.742958,2.892239,low
0.495147,0.105906,0.322068,0.677301,1.157171,1.779862,1.848860,1.789042,0.017800,0.034669,1.000254,1.292003,1.692071,1.066781,1.765726,1.546280,2.032810,1.593283,low
0.480587,0.154829,0.559745,0.702630,0.150187,1.301758,1.524638,0.379993,0.646503,2.097416,0.053385,2.033210,2.829324,1.727667,1.290024,1.039388,1.590686,1.412000,low
0.592408,0.944736,0.857935,0.955980,1.886715,0.950493,0.962712,0.686889,0.074322,0.837862,2.248487,0.561741,0.799793,1.675257,1.675311,1.132874,2.441778,2.794174,low
0.824681,0.736535,0.666927,0.531340,0.730167,1.709215,1.360122,1.226986,2.263619,1.002237,1.922074,2.041057,2.810065,1.861639,2.368709,2.914571,2.248034,1.297431,very_high
0.347809,0.882994,0.435396,0.399720,1.825168,0.942736,1.794565,0.191372,0.436937,1.640406,0.188016,1.182281,2.414577,2.006620,2.661691,1.692155,2.599189,2.373039,high
0.678016,0.202633,0.953120,0.953704,1.561044,1.737256,0.272348,0.709136,2.607141,0.307239,2.894213,2.386726,2.192682,2.515648,1.665165,2.736151,2.287177,1.600040,very_high
0.565732,0.587586,0.719245,0.642110,1.510875,0.583154,0.500746,0.502225,1.929973,1.928083,0.067865,0.110507,2.360611,1.784227,1.467181,2.919354,1.334027,2.135692,low
0.267028,0.701140,0.930165,0.298150,1.213439,0.257626,1.085402,1.831033,0.688256,0.975442,1.769882,2.003948,1.816275,1.661226,2.665285,2.886534,2.340620,2.232439,very_high
0.878630,0.680112,0.527588,0.126464,1.253568,1.710629,1.598021,1.705021,0.473161,1.898145,2.329102,1.949467,0.732240,2.653758,2.781408,2.763450,1.783098,1.834739,very_high
0.797426,0.408152,0.258904,0.842555,1.276006,1.174830,0.072510,1.159665,1.882874,2.502021,2.363689,2.822806,0.568485,2.699593,1.820043,2.789688,1.926286,2.949930,very_high
0.658452,0.015395,0.052827,0.362182,1.257443,1.778185,1.968036,1.040693,2.702511,0.513334,0.102855,2.140103,2.599024,1.465532,1.053808,1.578016,2.843129,1.263666,medium
0.850582,0.582926,0.726085,0.660470,1.107456,1.875654,0.909813,1.861452,2.155081,2.792619,2.719245,2.388906,2.175418,1.629344,2.389923,1.302940,1.719928,1.782798,very_high
0.867294,0.253102,0.121303,0.470816,1.972828,0.107257,0.718462,1.864856,1.045640,1.592064,2.755355,2.713773,0.639613,2.650233,2.568066,2.278525,2.223918,1.860791,very_high
0.708363,0.450254,0.302775,0.198930,1.464581,1.001939,0.585449,1.938660,1.762151,2.768783,1.684171,2.025156,1.845280,1.158816,1.036049,1.976211,1.726963,2.262094,high
0.837013,0.957581,0.532471,0.601687,1.553893,0.749929,0.348713,0.250758,0.932285,0.623190,1.446250,0.870461,1.342639,1.651694,2.190062,1.197493,1.189455,1.814520,low
0.697471,0.399035,0.564417,0.060683,1.744926,1.251717,1.583148,0.321116,2.997449,1.813688,0.134602,2.609321,0.475966,1.896700,2.176738,2.355083,1.907051,1.194072,high
0.680141,0.839802,0.600583,0.413342,0.431280,1.587182,1.910828,1.353473,2.246518,1.211661,1.685862,2.242734,1.595571,1.374143,1.757416,2.125720,2.194123,2.894860,very_high
0.618611,0.188541,0.166255,0.546615,0.167608,0.561180,0.827290,1.082869,1.843145,2.322667,1.228137,1.273313,0.844557,1.359828,2.499535,2.726135,1.815007,1.832158,medium
0.752717,0.672460,0.379737,0.436047,0.965789,1.113597,1.904841,0.036932,1.269777,1.817727,2.318419,2.131588,0.288732,1.849724,1.856358,2.218368,1.781332,1.685347,medium
0.158605,0.977007,0.617194,0.748672,1.028161,1.417457,1.647595,0.123950,1.854457,1.483546,1.211651,2.603067,1.400875,2.509043,2.353552,2.147892,2.640757,1.893444,very_high
0.880871,0.101893,0.969819,0.827925,1.658364,0.268862,0.962102,1.776161,1.024848,2.738956,2.050742,2.926956,1.770326,2.680466,2.034235,1.881503,1.059370,1.433191,very_high
0.871844,0.008320,0.727631,0.771243,0.887567,1.628134,1.348052,1.737742,0.086595,1.131351,0.304224,2.857055,0.140719,2.958470,1.496929,1.925574,1.591171,1.200443,low
0.029247,0.433583,0.922604,0.038813,1.141706,1.212219,0.869968,0.714542,1.185266,0.659941,0.398857,0.975983,1.206278,1.147968,2.213002,2.908762,2.623515,1.297157,low
0.825817,0.092625,0.762212,0.194129,1.054142,1.899075,1.117447,1.782101,2.791442,1.824304,0.419131,1.265081,0.772986,1.433364,2.473817,1.276892,2.841060,1.333310,medium
0.128870,0.748384,0.591717,0.536608,0.076406,0.679058,0.116093,1.187350,1.878903,1.872085,0.136576,0.328610,0.091952,2.513260,2.947811,1.892438,1.824599,1.395347,low
0.335119,0.914549,0.192023,0.934822,1.230430,0.216292,1.392527,1.611811,0.251867,1.317284,1.623987,0.742633,0.376988,2.081197,1.760218,2.311654,2.777588,1.839920,medium
0.743508,0.434021,0.666686,0.834957,1.656087,1.013002,0.105649,0.854862,2.654981,1.459830,2.381903,2.647264,0.417102,1.655360,1.128945,1.866021,1.397860,2.247799,medium
0.160760,0.258712,0.623380,0.842535,0.315001,0.171622,1.634170,0.226797,0.806625,2.878660,1.831234,1.082550,0.548623,1.411179,2.975942,1.566431,1.442854,2.257776,low
0.817967,0.434403,0.602469,0.303208,1.188663,1.939053,1.649894,0.867454,0.731308,2.198057,1.724865,1.861658,2.410133,1.560955,2.247613,1.574715,2.692383,1.000195,high
0.832134,0.723448,0.489786,0.429448,1.187221,0.077370,0.474155,0.914600,0.891273,0.331805,2.041872,1.997897,1.318476,1.858578,2.892901,1.467312,2.806515,2.841915,high
0.507468,0.009054,0.528657,0.470706,0.328370,1.507008,0.647326,1.101888,1.731607,0.636390,1.018936,2.345488,0.441258,1.354302,1.207654,1.687806,1.445612,2.645694,low
0.006386,0.589454,0.334443,0.157372,0.246927,1.050205,0.962621,0.211165,1.634064,2.926730,1.085862,0.548400,0.300891,2.928452,1.684068,2.743350,1.118648,2.927876,medium
0.287038,0.613292,0.519313,0.031068,1.960104,0.737241,1.193326,1.982804,1.474241,2.179397,0.942810,0.914439,0.893821,1.215177,1.267873,2.010449,1.180648,1.719973,low
0.616927,0.637688,0.197556,0.946903,0.787438,0.131684,0.574707,0.488274,2.152611,2.745135,2.136327,1.345009,2.394047,2.971155,2.671020,1.480477,1.522762,2.329599,very_high
0.981186,0.242022,0.805174,0.240713,0.454843,1.244334,1.184973,0.397105,0.949613,0.911584,0.484921,1.094523,1.093380,2.683787,2.760685,1.769053,2.522898,1.336041,low
0.631814,0.714053,0.185777,0.239949,0.342649,1.170441,0.595574,1.053606,2.346194,2.225601,0.039076,2.948716,0.479692,1.846303,2.002623,1.211661,2.019984,2.634066,medium
0.259804,0.091391,0.084966,0.083379,1.335203,0.561767,0.110981,1.074416,0.525965,2.142008,1.788589,2.504822,1.212349,2.479633,1.373212,2.808071,1.911178,1.322735,medium
0.634006,0.199270,0.436246,0.928508,1.218891,1.820443,0.005055,0.879641,2.347862,0.884070,2.827144,1.439060,1.665935,2.343030,1.254238,1.816396,2.168280,1.651971,high
0.539985,0.877470,0.658307,0.579737,1.287104,0.608220,0.202302,1.543784,1.991430,1.652449,1.828224,2.637806,0.088753,1.426574,2.176328,2.960782,2.780446,1.981670,very_high
0.779845,0.738723,0.437717,0.667037,0.176012,0.899451,1.584501,1.033309,2.049625,1.882245,2.348765,1.042959,1.882925,1.678140,2.012753,1.695078,1.180861,2.189063,medium
0.106981,0.013746,0.276754,0.911577,1.787069,1.087525,1.922863,1.219391,1.444660,1.443395,2.018372,2.357485,1.185302,2.026245,2.389578,2.672712,2.389448,2.119266,very_high
0.761028,0.248376,0.558171,0.345620,0.778533,0.200464,0.853932,1.447493,2.001005,2.481536,1.492310,0.671027,0.029178,2.275688,1.610415,1.512771,2.853582,1.204192,low
0.541267,0.214406,0.347002,0.621507,0.626739,1.864323,1.025368,0.050050,0.239391,2.498607,2.155177,2.316966,2.021668,2.085790,1.804736,1.152306,1.426700,1.843352,medium
0.962992,0.270806,0.932868,0.038799,0.924723,0.749072,0.293696,1.141288,2.554653,2.551802,2.472312,1.369360,2.137163,1.945975,1.042722,1.063467,2.675545,2.845819,very_high
0.341872,0.247560,0.922645,0.186773,0.780132,0.161558,1.102063,1.768389,0.166642,2.410271,0.674195,0.322498,1.886519,1.886305,2.220286,2.212337,2.396049,2.744737,medium
0.632622,0.062526,0.502372,0.831246,1.727154,0.774582,0.289310,0.034777,0.446225,1.464250,1.008391,0.819787,1.025791,1.996529,1.846287,1.623147,1.028937,2.181567,low
0.932028,0.458941,0.327884,0.766768,1.858522,1.200405,1.222429,0.810364,1.730369,1.144315,0.671177,1.206824,1.588815,1.868703,2.839529,1.887040,1.463223,2.144649,medium
0.102510,0.732733,0.737132,0.350643,0.606906,1.027305,1.866517,1.852455,2.218234,2.494129,1.356519,2.247879,1.161473,2.082660,2.283573,2.637294,2.211690,1.223350,very_high
0.937228,0.606732,0.036713,0.376811,1.727872,1.389084,0.391397,0.706309,0.228755,1.470604,2.655194,0.218948,2.101865,2.775971,1.797389,1.496216,2.004801,1.400519,medium
0.687886,0.672872,0.474769,0.533554,1.563046,0.110968,1.529127,0.917458,2.762294,0.739114,1.035621,1.978641,1.750741,2.265659,1.527178,1.617305,2.055873,1.505279,medium
0.067837,0.081149,0.336323,0.000241,1.861615,0.569081,0.047005,1.963083,2.920823,1.522031,1.123401,2.148041,0.245397,2.445242,2.810570,2.690672,1.463861,1.976391,very_high
0.300964,0.951491,0.920536,0.241244,0.491501,1.638461,0.750994,0.398648,1.817851,0.425549,2.581102,1.961764,1.929281,2.194966,1.032530,1.985525,2.350007,2.462712,high
0.708172,0.838492,0.012003,0.208232,1.153918,0.159787,0.221497,0.130510,1.443730,2.074888,1.546123,2.282009,2.061715,2.286035,1.653825,2.655330,1.532837,1.921451,high
0.067351,0.805090,0.552815,0.250483,0.549089,1.710972,0.704951,1.718845,2.224185,1.007764,1.606347,0.534506,1.112107,2.156700,2.887011,1.748952,1.778870,1.252122,medium
0.582170,0.822984,0.740664,0.805906,1.648189,0.183792,0.347074,1.736931,0.985072,0.781976,2.582404,1.761310,2.627357,1.053733,2.308066,1.796740,1.737832,1.878698,medium
0.345883,0.932711,0.485018,0.279674,0.010648,1.668908,0.746610,0.944156,1.479793,2.869526,1.471580,2.823435,2.529043,2.999197,2.065438,1.334277,2.344050,1.325267,very_high
0.620916,0.544254,0.085403,0.191521,1.129638,0.721577,0.835046,1.028414,2.748453,2.330643,2.044673,1.832353,0.525500,1.067218,1.407069,2.832692,1.180506,2.502295,high
0.045742,0.200282,0.972461,0.504263,0.678407,1.224418,0.601182,1.671613,2.866966,2.361209,0.256934,1.834009,2.712799,1.790296,2.666750,2.793567,1.411084,1.333002,very_high
0.871537,0.616784,0.518010,0.865645,0.645367,0.305774,1.313244,1.477119,2.781207,1.871166,0.535895,2.209319,1.322617,1.210231,1.408398,2.968434,1.400994,1.965068,medium
0.973489,0.742881,0.614186,0.241350,1.289813,0.132337,1.837704,0.530298,0.787344,2.517518,1.213129,0.999613,2.171249,1.193857,1.496507,1.804894,1.216849,2.386827,low
0.968878,0.737917,0.236610,0.078536,1.702969,0.431876,0.801191,0.033787,0.697407,2.277487,1.484517,2.101428,2.442291,2.587054,1.383702,2.637230,1.415190,1.456396,high
0.749652,0.521449,0.483498,0.356405,1.218391,0.255708,0.384686,0.959400,0.892994,1.796321,2.897201,2.748701,1.515337,1.851852,1.316299,1.829907,2.214121,1.152060,medium
0.130086,0.068459,0.429149,0.747652,1.706346,0.624812,0.541446,1.717825,1.323933,2.883373,2.911955,0.032686,1.197306,2.602277,2.906625,1.908598,2.464336,2.126599,very_high
0.758263,0.371113,0.074896,0.550691,0.529194,1.028766,1.708002,1.791669,0.942502,0.574785,2.553591,2.610339,2.746354,1.545573,2.204063,2.659999,2.320607,1.108405,very_high
0.024587,0.920767,0.106160,0.816793,1.039004,1.177519,1.143279,1.912452,1.122638,2.830139,0.946797,0.655855,0.692561,1.512926,2.275674,1.354734,1.950376,2.175537,medium
0.022124,0.584449,0.837473,0.959592,0.901073,1.579736,0.910022,1.759126,1.861911,1.204314,2.892085,1.367770,0.770910,1.502463,2.908651,1.440622,1.104869,2.506997,high
0.323610,0.538332,0.239820,0.792662,0.023290,1.312480,0.299273,1.160087,2.287577,1.585197,2.068023,2.557043,1.084861,2.232291,1.461150,1.629456,2.918014,1.658632,high
0.488643,0.268854,0.194958,0.603803,1.113624,1.217517,0.899455,0.889211,2.206675,0.368218,1.178820,2.471736,2.578397,2.629999,1.011835,2.576358,1.336153,1.976699,high
0.770407,0.368449,0.504911,0.493342,1.323049,0.823564,0.556984,1.549700,2.443271,1.620322,2.105025,2.675782,2.816365,1.904522,2.197767,1.745303,2.336843,2.857524,very_high
0.683295,0.895346,0.768747,0.040069,1.183829,0.947617,1.886326,1.479643,0.096553,1.833620,0.049568,2.821250,0.660203,1.758498,2.015690,1.716336,2.825781,1.942218,medium
0.445903,0.666463,0.061947,0.984322,1.472560,0.829042,1.768140,1.076287,0.143201,2.993105,0.438464,1.341471,2.591610,2.947159,1.955301,2.997633,2.395554,2.993108,very_high
0.273627,0.787387,0.576808,0.383481,1.142679,1.684332,0.167805,0.174655,2.368149,2.925577,2.489057,1.969091,0.774609,1.233508,1.123760,1.767612,1.436099,1.314005,medium
0.997125,0.454345,0.119210,0.152228,0.133501,0.460001,1.033307,1.852163,1.599236,2.899192,1.936721,1.171435,2.911924,1.973265,1.908870,1.495541,1.631593,2.417868,high
0.426181,0.630247,0.036461,0.666709,0.232891,0.011442,0.450117,0.911205,1.734422,1.045164,1.092584,1.052150,1.792224,1.816976,1.575119,2.246427,1.060412,2.305237,low
0.451387,0.248384,0.052744,0.284288,1.192949,1.302640,0.821554,0.726668,0.157761,2.973799,1.502000,1.294786,0.021259,1.196253,1.549129,2.603760,2.225516,2.744610,medium
0.163624,0.705461,0.834164,0.585778,0.549958,0.404924,1.753696,1.259135,0.765941,1.366434,2.715426,2.229228,0.102390,1.536401,1.444763,1.139216,2.225986,1.184886,low
0.794810,0.427601,0.117972,0.586768,0.159290,1.780230,1.055029,1.347676,1.915063,2.555509,1.894734,1.504322,0.442454,1.056882,1.665057,2.237784,2.451001,1.560413,medium
0.693682,0.442546,0.045151,0.445730,0.859205,1.718093,0.668431,0.421376,2.577546,0.648960,1.194448,2.442179,0.562719,2.753909,1.706266,1.071471,1.021993,1.264358,low
0.220770,0.649322,0.437900,0.836119,1.108645,0.153455,0.415777,1.673878,2.750950,1.517500,0.360980,2.235655,2.302857,2.215699,1.617552,2.052665,2.635683,2.866190,very_high
0.082381,0.936281,0.843993,0.264967,0.657492,0.212777,1.600650,0.579874,1.501258,2.898036,0.881240,0.061435,0.668298,2.630037,2.957505,1.513983,2.477422,1.853271,medium
0.680499,0.064006,0.262408,0.448633,1.440867,0.990343,1.249036,0.373368,1.636423,2.841094,2.935021,1.890714,2.907425,2.043109,2.865462,1.613283,1.281773,2.820132,very_high
0.654511,0.824743,0.421713,0.537692,1.287541,1.218445,0.936131,0.812800,2.499149,2.051205,1.312089,1.309713,1.908336,2.199020,2.149020,1.934192,1.695253,1.588814,high
0.273260,0.292383,0.039923,0.663625,0.665637,0.549817,0.434969,1.461120,1.612874,2.393443,1.415518,1.369887,2.077553,2.401709,2.962110,2.854215,2.277050,1.252736,very_high
0.950864,0.443919,0.449079,0.783972,1.509745,1.433595,0.668493,1.930916,1.550576,0.529280,1.495794,2.455119,0.653450,2.816023,2.982396,2.421335,1.991594,1.593075,very_high
0.151058,0.021913,0.577613,0.394807,1.297390,1.189832,1.919687,1.618563,2.715252,2.164976,2.652312,1.642824,2.678119,1.183504,1.711879,2.873691,1.230189,2.194349,very_high
0.432335,0.301046,0.570907,0.646047,1.274891,0.649648,1.040180,1.880697,2.369798,1.854152,1.811785,2.656865,2.003444,1.661897,1.890375,2.319942,1.174691,2.690465,very_high
0.943616,0.502631,0.332427,0.150611,1.106855,0.050743,0.801399,0.281212,2.727218,0.274655,2.081031,2.138417,2.593217,2.418052,2.918124,1.014215,2.562913,1.770781,very_high
0.419727,0.056176,0.315533,0.932648,0.022779,1.500301,1.042844,0.142354,0.654741,0.339477,1.168241,1.658520,2.869443,2.916701,2.217252,1.531170,1.311934,2.829617,medium
0.638526,0.491096,0.106624,0.383059,1.393014,0.429507,1.557977,1.115410,1.573126,0.325331,0.087263,2.263614,0.376923,2.961615,1.425858,2.811545,1.344185,1.488464,low
0.397594,0.927111,0.366798,0.729521,0.752084,1.668947,0.680218,0.580595,2.527416,2.173071,2.792919,0.115047,0.289762,2.276206,2.378761,2.286891,2.661846,2.387081,very_high
0.274215,0.105393,0.099495,0.020341,1.885219,0.840581,0.357412,1.656110,0.333443,0.425146,2.847383,0.081251,2.410223,1.387197,1.411492,2.963294,2.224279,2.471427,medium
0.983978,0.764441,0.766596,0.205187,1.635970,1.154155,1.169872,1.343976,2.383986,1.403197,2.847459,0.250048,2.598378,1.238418,1.678715,1.311928,2.209431,1.547926,high
0.409334,0.409671,0.966274,0.487083,1.175389,1.745897,1.330408,1.941456,0.548920,1.070945,2.831061,1.312696,1.751284,2.892087,1.455120,1.593496,1.958692,1.053940,high
0.894099,0.655174,0.970074,0.878252,0.504364,1.727246,1.425436,0.509585,2.424356,1.651512,2.445726,0.706350,1.098002,1.867855,1.489960,1.724735,2.137990,1.730475,medium
0.229955,0.260237,0.865071,0.527255,0.407435,0.743039,1.763975,0.971568,1.836003,2.119429,2.053788,2.952784,1.957889,1.389632,1.009311,1.653116,2.203539,1.090392,medium
0.213105,0.159492,0.600792,0.929870,0.680770,0.417778,0.742348,1.002481,0.579708,2.054168,2.533530,1.626870,0.916992,2.867785,2.761418,1.503983,2.935652,2.801508,very_high
0.031134,0.160463,0.700866,0.483797,0.953136,1.550292,0.150710,0.478354,1.420063,1.546560,1.801639,1.987247,0.715157,1.209049,1.591981,1.886931,1.445947,2.907051,low
0.651667,0.070492,0.285206,0.490449,0.592131,0.866160,1.916697,1.180187,2.045715,1.393005,0.403109,0.836460,1.464436,2.459142,1.172749,2.284596,1.429125,2.470760,medium
0.368526,0.185647,0.630770,0.119747,1.029859,0.384084,0.870024,0.886572,1.901559,1.193447,1.173654,0.965391,0.648461,2.250526,1.173975,1.622514,1.114437,2.453369,low
0.864358,0.664219,0.455650,0.802656,0.330741,1.808851,1.246515,0.893443,1.281742,2.585730,2.913885,1.006386,1.451111,1.175469,2.112037,1.159400,2.316398,1.481785,medium
0.473210,0.881691,0.482017,0.246965,1.955426,0.396208,1.332611,0.725473,2.698100,0.992555,1.053413,2.096207,2.869820,1.677498,2.985841,2.417065,2.098084,1.147851,very_high
0.968193,0.814126,0.757777,0.899612,0.215849,0.051614,1.093027,0.033859,1.557790,0.778097,2.603484,1.421119,2.519352,1.299861,1.290045,1.918033,1.222478,2.604209,low
0.185526,0.685134,0.281918,0.910824,1.863888,0.040560,0.410515,1.044190,1.517602,2.229946,0.279634,1.553051,2.824893,2.208997,1.199244,2.112965,1.729078,2.118324,medium
0.868623,0.110432,0.318040,0.943310,1.827156,1.244631,1.510286,0.670496,0.186752,1.079290,1.002552,1.776009,2.418987,1.954226,1.876608,1.910801,1.357326,2.363255,medium
0.776597,0.289187,0.924642,0.520230,1.050721,1.323350,1.607504,0.002640,2.766361,2.540996,1.052860,2.306435,1.064253,1.008550,2.126663,2.780715,1.662963,2.559282,very_high
0.770922,0.309807,0.056224,0.677094,1.449821,0.622083,1.105951,0.615887,0.531350,0.983666,0.154808,0.271109,2.436136,2.951421,1.588761,2.117490,2.902528,1.818869,medium
0.844783,0.249957,0.485634,0.778516,0.872097,0.640022,0.977122,0.557257,1.585034,2.105834,0.357283,2.330622,2.768747,1.699169,1.605044,2.846554,2.366638,1.289093,high
0.761024,0.515006,0.912801,0.131015,1.260069,0.678988,0.227876,0.786896,2.410703,0.135327,0.579496,1.689705,2.841107,1.516409,1.848953,2.021151,1.015138,2.590074,medium
0.626220,0.535554,0.610363,0.600957,0.681152,1.360317,0.167903,0.263704,0.646360,1.156689,2.513447,2.007286,2.049594,1.444886,1.628291,1.585176,1.505016,1.907531,low
0.131245,0.356886,0.546407,0.034298,0.602318,0.116268,0.679130,1.015368,1.582120,1.029691,0.190206,0.982655,0.634100,1.317632,2.830663,1.710885,1.020723,2.653848,low
0.032526,0.353789,0.249744,0.497566,1.156460,1.858233,0.621692,1.384881,0.722055,2.450036,0.896103,1.228161,0.119187,2.998274,1.083909,2.044259,2.429737,1.875398,medium
0.920848,0.828556,0.343275,0.154843,0.996259,0.445042,1.907313,1.260371,2.279085,2.901166,0.030525,0.693497,0.441601,1.590219,1.469140,2.059979,1.938844,1.434033,low
0.616650,0.789293,0.852048,0.182923,1.159073,1.999346,1.567245,1.607510,1.693024,1.382644,2.086883,2.937900,2.896641,1.811027,2.617106,2.374675,2.988037,1.342010,very_high
0.796537,0.307796,0.559218,0.365048,0.573321,0.343045,1.319849,0.904017,2.567928,2.474509,1.860909,1.491009,1.386290,2.742712,2.667916,1.448990,2.467167,2.487844,very_high
0.481522,0.913788,0.514742,0.432437,0.733916,1.543093,1.035296,1.038183,2.683674,2.099084,1.934947,2.988231,2.564958,2.283775,1.223110,2.317686,2.035826,2.149778,very_high
0.117308,0.952815,0.099580,0.623172,0.167796,0.446825,0.334735,1.620804,1.946200,2.902158,1.123148,1.469358,1.395132,1.737389,2.947527,2.557176,2.609411,1.809206,very_high
0.125186,0.326743,0.016028,0.074428,0.104553,0.161694,1.956913,0.855402,2.176174,2.433326,0.624803,0.659254,1.982453,2.796657,2.386710,2.353184,2.409607,1.984234,high
0.685565,0.354425,0.963685,0.503692,0.506914,1.749867,0.750081,1.403199,1.647660,0.232434,2.160961,1.522357,0.072422,2.499448,1.545186,1.963656,1.487552,2.099277,low
0.430306,0.505634,0.376986,0.182625,0.148494,1.717503,0.213851,0.869205,1.153286,2.139845,2.433354,0.118787,0.749595,1.455801,1.912076,2.983361,2.060517,1.478833,low
0.200525,0.941121,0.603213,0.573975,0.207549,0.807141,0.987598,0.835472,1.944354,1.606499,0.415804,2.714309,1.308808,2.287478,1.594277,1.809626,2.111997,1.756331,medium
0.491595,0.876319,0.079715,0.637405,1.625857,1.404792,1.747996,1.520411,2.724866,0.049308,1.460488,2.455651,1.891893,2.844797,1.300044,1.213181,1.902463,1.584823,high
0.064209,0.102568,0.683114,0.556709,0.077747,1.114132,1.774582,0.349674,1.250041,0.753939,0.746147,2.177462,0.514564,1.992922,1.582356,2.643008,1.358385,1.776848,low
0.581971,0.392731,0.932567,0.738296,1.317886,1.705912,0.021932,0.677172,0.943230,2.765266,0.504321,1.829480,2.293654,2.467225,2.160184,1.424402,1.446738,2.001124,high
0.268993,0.553371,0.575665,0.335609,0.545115,0.630112,1.772591,0.448345,1.165311,2.778184,2.202976,1.739503,1.093214,2.942207,2.651939,2.426571,1.562095,1.346715,very_high
0.797559,0.503132,0.126115,0.765107,1.743091,1.047345,0.542968,0.718220,1.306193,2.396551,1.614291,2.990185,2.452306,2.380828,1.727058,1.357953,1.020510,1.787030,high
0.310362,0.193863,0.581722,0.432767,0.969985,0.970745,0.077945,0.460750,0.220683,2.945339,0.648556,0.833992,0.293907,1.204877,1.695803,1.033755,2.833888,1.770989,low
0.455220,0.858817,0.766347,0.484184,0.611153,0.707812,1.695581,1.158811,1.495326,2.419636,0.930000,2.339053,2.039270,1.489119,1.936001,1.319597,2.372192,1.572008,high
0.011621,0.676941,0.406417,0.648102,1.035278,1.782910,1.727734,1.596342,1.482943,0.030613,2.899961,1.744214,0.879985,2.190193,2.289111,1.753977,2.379235,2.996993,very_high
0.072447,0.837908,0.879838,0.018358,0.763916,0.331756,1.192462,1.573226,1.765331,0.863503,2.546039,2.927642,2.386150,1.551112,2.503233,1.213236,2.144661,1.147255,high
0.392494,0.858764,0.648683,0.653994,1.128602,0.299017,1.148868,0.729002,1.088460,0.091873,2.639840,2.483410,1.206511,2.915083,1.653599,1.395358,2.378622,2.285902,high
0.479939,0.748356,0.899249,0.618585,0.229066,1.153819,1.626241,1.977521,1.839323,0.282324,1.380036,2.995575,1.996049,1.810704,2.172705,2.529253,2.963725,1.348877,very_high
0.600021,0.439211,0.623505,0.309847,1.993981,1.314988,1.572619,1.187709,2.634649,0.656522,1.871422,1.764975,2.802916,1.914461,1.778722,2.539767,1.770321,2.679048,very_high
0.291663,0.610547,0.131288,0.085794,0.851112,0.389239,1.780211,0.798801,2.866413,1.510676,1.130303,0.613632,0.061880,2.403204,2.432800,2.634976,2.425051,2.828393,high
0.694982,0.160365,0.309692,0.090935,0.696461,0.781435,1.105495,1.671079,1.750837,2.542596,0.233136,1.511061,0.033350,2.048499,1.329350,2.682310,1.719058,1.802956,low
0.860122,0.673645,0.201795,0.923224,1.420420,1.893128,1.935294,1.459748,0.127773,2.585900,1.203208,2.133333,2.310838,1.764292,1.513850,1.840872,2.708578,2.646957,very_high
0.779851,0.179253,0.908826,0.689279,0.727799,0.493235,1.992294,1.498551,2.907708,1.848606,1.781942,2.323081,1.939179,1.153276,1.852121,2.735099,2.716057,1.499819,very_high
0.039619,0.693950,0.760400,0.127103,1.666549,1.336721,0.233089,0.392279,2.117586,2.784528,0.861433,0.001530,0.878939,2.192891,2.778830,2.051874,2.804533,1.280137,high
0.480507,0.229598,0.676398,0.356723,0.908541,1.480299,1.699088,0.936649,1.007891,1.500187,2.543852,1.515081,1.483190,2.735160,2.146652,1.941194,1.010927,1.631757,high
0.104930,0.117551,0.300966,0.592483,1.439117,0.896257,0.999645,1.723656,0.441473,2.667108,0.453300,0.705704,0.125807,2.371525,2.930792,2.437073,1.596383,1.683348,medium
0.242045,0.165284,0.184045,0.835572,0.214906,1.875052,0.775133,1.008076,0.430256,1.362196,1.101387,2.624735,0.577337,1.762990,1.206555,1.427637,1.267849,1.794715,low
0.986663,0.001992,0.756451,0.043661,1.692238,1.473313,1.226145,1.366905,0.503233,0.831675,0.374712,0.458716,1.273489,1.255452,1.920351,2.578995,1.907972,1.745918,low
0.142496,0.718740,0.474158,0.236633,1.471436,0.915849,0.111931,1.175867,0.136718,2.749239,1.214496,1.999369,2.502133,2.632676,1.838157,1.858932,1.990899,1.822289,high
0.498888,0.732401,0.225790,0.889749,0.423434,1.138670,1.012922,1.684714,2.706463,1.163805,0.118984,0.798187,1.439002,2.883497,2.200412,1.254591,1.511808,2.420067,medium
0.618156,0.514933,0.616622,0.009166,0.290572,1.385227,1.741781,0.569122,1.622305,1.510212,0.817648,1.069626,1.759088,1.776546,2.623929,1.238624,2.446893,1.491160,medium
0.702465,0.161363,0.040334,0.201399,0.632585,1.184380,0.426923,1.150951,2.099878,0.986582,1.202206,2.821678,2.621261,2.457284,2.682896,1.329813,1.539539,1.037151,high
0.559649,0.083554,0.326170,0.959024,1.952141,1.757395,0.852780,0.246469,2.484326,1.988513,1.434496,0.721344,0.926457,1.821527,2.340389,2.781145,2.707783,1.979361,very_high
0.009771,0.019129,0.468557,0.613402,0.513663,0.713777,1.878962,1.380422,2.374623,2.985094,1.631089,0.285008,2.102098,2.004534,2.283073,2.981876,1.355319,1.896582,very_high
0.326461,0.165748,0.147958,0.261671,0.912254,0.599771,0.857128,1.463936,2.647817,0.076541,0.824973,0.207855,2.585002,2.672953,2.898059,1.713948,1.734471,1.120130,medium
0.517712,0.890856,0.984654,0.066991,0.060040,0.427678,0.716735,0.085675,2.901764,2.699544,1.569124,1.513845,0.607847,1.166849,1.767375,1.584288,2.244476,1.267603,low
0.087866,0.241537,0.209097,0.028191,0.794455,0.075566,0.881073,1.351582,1.317212,0.011778,1.527014,1.925134,1.069434,2.060671,2.665567,1.437542,2.210670,2.019842,low
0.350627,0.354271,0.130353,0.244745,1.142640,0.086028,1.038906,0.829380,2.851006,1.092684,0.948534,0.981881,2.939431,1.429241,2.843007,2.647633,1.156058,1.469502,medium
0.033203,0.105345,0.203535,0.881486,1.906249,1.740110,1.263983,0.248194,2.169870,0.505820,2.490601,2.070779,2.949656,1.679612,1.983078,1.418415,2.692517,2.755197,very_high
0.078578,0.222361,0.769061,0.415914,1.033472,1.356786,1.601386,0.839815,0.212005,2.272025,1.636923,0.183101,0.669690,2.288858,2.458205,2.848180,2.196130,1.346585,medium
0.396923,0.519225,0.425506,0.720333,1.638215,1.321065,0.904204,0.388466,2.045349,0.151833,0.996809,2.572004,0.199338,1.054457,1.754040,2.334701,2.739719,1.040245,low
0.132716,0.607753,0.565416,0.918285,1.094255,1.229286,1.634962,0.831119,2.060150,1.660455,2.842016,2.449702,0.812765,2.187650,1.317758,2.794256,2.735271,1.895128,very_high
0.567541,0.245352,0.021009,0.408040,0.081570,1.698438,1.067441,0.768678,2.717582,0.884778,2.535337,2.956489,1.193196,1.566884,2.173008,2.108020,2.091837,2.972326,very_high
0.689465,0.057732,0.034431,0.191277,0.630017,0.960534,0.676961,1.476783,1.118796,0.401011,2.947763,2.809515,1.323017,2.338969,1.392943,2.381360,2.821563,2.267745,very_high
0.800587,0.391033,0.445826,0.517118,1.151099,1.740822,1.315902,1.548431,1.754735,2.315455,2.076702,1.068591,1.856419,1.283163,1.915198,2.238916,2.696816,1.708059,very_high
0.200150,0.234203,0.816655,0.908084,1.901188,0.718890,1.435445,1.214057,0.036563,0.652251,1.134669,1.197826,2.698508,2.471623,2.745759,2.662391,2.916246,1.033736,high
0.167483,0.219554,0.885239,0.804374,1.718261,1.853415,1.116098,0.045374,0.996226,0.671026,0.842582,2.237895,0.991044,2.291279,1.172036,2.671722,2.700997,1.969897,medium
0.104568,0.959863,0.086707,0.065830,0.456711,1.397314,0.113230,1.862045,0.186731,0.825230,1.989954,0.402248,2.549954,2.942484,1.060857,2.179586,2.642408,1.412932,medium
0.636430,0.616300,0.538363,0.692573,0.440220,0.514354,0.339766,1.372467,1.565619,1.760300,2.942450,0.942044,0.280437,2.822471,2.212956,2.265015,1.938721,2.295508,high
0.706476,0.556878,0.913230,0.571898,0.402346,1.128170,0.570595,0.068391,2.452343,1.978998,1.880145,0.355623,0.125624,1.566606,1.662123,2.843752,1.424062,2.166017,low
0.031586,0.415775,0.387973,0.907463,1.844998,1.066061,0.565251,1.637666,0.619328,0.052808,2.644845,1.364659,1.512136,1.054633,1.835875,2.859733,2.821417,1.530428,medium
0.936212,0.428944,0.829566,0.122481,1.705332,0.275798,1.346842,0.400532,1.582323,0.725609,0.987310,1.656013,0.178987,2.310737,1.811421,2.328500,2.445098,1.137765,low
0.051971,0.540905,0.133696,0.534036,1.549767,1.182486,0.036697,1.158442,0.612026,1.292913,1.220861,0.633481,1.177469,2.205775,1.173240,1.015509,1.563496,2.510038,low
0.541296,0.696430,0.935394,0.879463,0.785470,0.629571,1.511364,0.933269,0.362065,0.995931,2.718826,0.079895,2.690334,1.054858,1.007133,1.208822,1.681991,2.170928,low
0.709061,0.702146,0.751423,0.410024,1.008761,0.104698,0.530685,0.839678,1.532990,2.652512,2.270600,2.158067,0.724449,1.245355,2.796846,2.715885,2.372157,2.684252,very_high
0.870969,0.171694,0.941334,0.481995,0.928663,1.897312,0.620044,1.779427,0.237446,2.363126,2.944231,0.060015,2.117927,2.169403,1.435597,1.169428,1.955635,1.519600,medium
0.714087,0.500113,0.676617,0.070461,0.506796,1.282981,1.055820,0.874723,1.762064,1.877671,2.324293,2.920208,0.907096,2.823655,1.852158,1.427038,1.162965,2.305724,high
0.801728,0.411958,0.363404,0.278144,1.010056,1.753838,0.431851,0.150688,0.094012,1.014127,1.345547,0.664822,0.134760,2.813001,2.943852,1.461093,1.282896,1.237361,low
0.339450,0.870527,0.938181,0.324507,0.060993,1.352112,1.768943,1.893277,0.320145,2.102017,1.593204,1.991700,1.670072,1.302970,2.653525,2.200470,2.491297,1.583620,high
0.814825,0.631419,0.275567,0.945122,0.263621,0.713967,0.170738,1.841070,1.649992,2.530914,2.701546,1.304255,2.504560,1.769148,1.215862,2.153266,1.657139,2.313078,high
0.080115,0.532504,0.332173,0.282667,1.773179,1.025376,0.888765,1.368865,1.774222,1.784491,1.654940,0.179022,1.228405,1.086406,2.017038,1.578835,2.015299,2.651163,medium
0.894817,0.115395,0.700808,0.460869,1.503360,1.351494,1.698845,0.935785,0.086961,2.353384,0.766192,1.416551,1.851881,1.938544,2.460158,1.415223,2.533243,1.641851,medium
0.547592,0.605638,0.765316,0.671304,0.845737,1.920505,1.231688,0.185719,1.720130,2.247315,1.306859,1.550282,2.700071,2.506167,2.396786,2.529064,2.502351,2.597707,very_high
0.817298,0.117204,0.929403,0.162183,1.034301,0.507339,0.584659,1.581496,2.515508,1.715212,1.548948,2.564050,2.369084,2.579945,2.521684,2.870912,1.334030,2.355505,very_high
0.452318,0.337207,0.204802,0.486442,0.739998,1.749954,0.841520,0.150956,2.166949,0.936550,0.290160,2.197047,0.581629,1.997979,1.914909,1.105611,1.196788,1.697350,low
0.643578,0.142842,0.797998,0.738539,1.481560,1.848156,1.413389,0.137202,0.393555,2.237346,2.231288,0.237907,2.200152,1.191739,1.351846,1.266361,2.182305,2.752794,medium
0.526403,0.692074,0.738546,0.866855,1.568374,1.340831,1.946521,1.074768,1.777424,0.620389,0.328062,0.627488,1.505679,1.762728,1.929745,2.284328,2.483266,2.018458,medium
0.731590,0.206252,0.063795,0.626259,1.526570,1.862533,1.786277,0.320256,2.016758,2.338465,1.214753,0.935663,2.237900,2.864204,2.295774,2.608883,1.298080,2.296494,very_high
0.081630,0.391859,0.387223,0.669054,1.445223,0.795757,0.684866,0.015461,0.111694,2.413640,2.413867,0.349223,1.483547,1.459225,2.217184,2.582377,1.743911,1.991263,medium
0.060352,0.895675,0.282765,0.126283,0.409009,1.906032,1.996396,0.846227,2.566043,2.466435,1.402711,1.370697,0.383874,1.639509,1.141044,2.439366,2.740556,1.905440,high
0.247103,0.204316,0.304490,0.945776,0.675940,1.405566,0.007009,0.274434,2.718802,1.418748,2.526047,2.952928,1.709728,2.493654,1.129905,2.774856,2.888446,2.695955,very_high
0.159545,0.507805,0.982947,0.132574,0.939691,0.084012,0.055260,0.321031,2.551357,0.577442,1.025644,1.543838,1.476402,2.467162,2.930516,1.434698,1.908140,1.589409,medium
0.871784,0.419272,0.642777,0.774673,0.661586,1.813746,1.647681,0.153821,2.473894,0.299171,2.872909,2.225647,1.553765,2.824405,1.303611,1.214582,1.159032,1.073258,medium
0.219214,0.018124,0.717676,0.264816,1.509880,0.968946,0.398925,0.410188,2.234896,2.230084,0.628405,2.048813,2.636707,1.776237,1.588925,2.230726,1.515393,2.759565,high
0.975865,0.792758,0.976618,0.933593,0.658707,0.920654,0.121539,1.430968,1.900296,2.658784,0.114792,2.549734,2.684511,2.029197,2.535269,2.644552,1.465940,2.650048,very_high
0.336896,0.069046,0.377202,0.719960,0.276464,1.132933,0.474296,1.617855,2.035881,1.952515,2.617280,0.647170,1.360611,1.934785,1.819354,2.164087,1.477927,1.733121,medium
0.182118,0.474255,0.801840,0.753814,0.798081,0.298769,0.852200,0.905067,2.419186,0.432480,2.256608,2.261479,1.367196,2.855504,1.362930,2.925995,1.987763,1.370902,high
0.789699,0.560678,0.434531,0.219059,1.959829,0.938332,1.461133,1.013108,1.987495,2.804689,0.695952,2.644066,1.545561,2.538661,1.934465,2.591129,2.166451,2.351067,very_high
0.658708,0.628426,0.869534,0.443040,0.451763,1.662254,1.248671,0.065310,0.983181,2.967306,2.954225,0.514529,1.558768,2.662884,2.137900,2.401584,1.245019,1.157522,high
0.498196,0.688632,0.180658,0.617813,1.224317,0.030965,0.475242,0.138633,1.127883,1.300136,1.506840,1.040407,2.851161,1.266197,1.905533,1.120515,2.778712,1.847510,low
0.555364,0.253272,0.947686,0.769974,0.865946,0.545834,1.006541,0.515135,2.691172,1.784476,2.853196,2.910305,1.948201,2.583693,2.837892,1.215484,2.239948,1.171725,very_high
0.719202,0.009979,0.218772,0.103959,0.142049,0.004909,1.852428,1.087797,0.051366,2.331686,1.515086,2.342364,0.832371,1.865958,1.569399,2.569675,2.194503,2.195819,medium
0.228455,0.723444,0.326221,0.962365,0.975753,0.831423,1.630016,1.479102,2.096462,2.209169,1.415624,0.847772,1.594610,1.046677,2.322664,1.396476,2.974558,1.054417,medium
0.996334,0.535657,0.756192,0.890221,1.404329,1.456631,0.646380,1.210006,2.864333,2.903362,1.347416,1.691825,1.881671,1.120177,1.224589,1.057670,2.256288,2.258477,high
0.974793,0.836118,0.393755,0.270349,1.026440,1.597544,1.964529,0.784256,2.118685,0.344649,1.004626,1.212978,1.919315,2.355816,1.784571,2.821521,2.857918,2.346411,very_high
0.650326,0.821388,0.608211,0.822760,1.744212,1.890380,1.417241,0.236648,2.981736,1.742175,1.601104,1.469896,1.755763,1.744025,2.481987,2.781611,1.572514,1.974289,very_high
0.199542,0.843326,0.444574,0.518324,0.577874,1.217009,0.124899,1.561546,2.062635,2.075794,1.357664,1.065499,0.533208,2.736231,1.449634,1.436968,1.480259,1.350015,low
0.680228,0.485095,0.742370,0.461806,0.172498,0.509254,0.070321,0.727572,0.103089,2.670295,0.110241,0.837993,0.100780,2.468546,2.179542,2.560413,2.033037,1.202788,low
0.072198,0.333628,0.228331,0.314434,1.873131,1.848296,0.336816,1.472108,2.481030,2.622329,0.781306,2.024289,1.013529,1.043360,1.306874,1.095959,2.017218,1.626585,medium
0.030653,0.791558,0.058458,0.580969,0.756393,1.550632,1.455712,1.025958,0.853890,2.933999,0.639368,2.335625,1.282566,2.373777,1.205403,1.570116,1.452967,1.930413,medium
0.257683,0.451294,0.299929,0.729889,1.152811,1.148857,0.367478,1.477324,1.338172,1.536235,2.602307,2.621871,0.185413,1.384705,2.046465,2.247334,2.399311,2.284417,high
0.462623,0.183442,0.474309,0.410933,1.584006,1.391280,1.022974,1.814579,0.936276,2.492283,1.796610,0.465990,2.444902,1.845165,2.350022,2.526358,1.059268,1.002500,medium
0.868273,0.854974,0.168020,0.629219,0.648627,1.848633,0.186520,1.842059,0.805662,1.281845,2.291049,2.468567,1.032232,2.249470,1.226734,1.020798,2.381261,2.422128,medium
0.727169,0.882560,0.354797,0.699313,1.432329,1.424788,1.841772,1.070214,1.294217,1.266942,2.870478,0.764402,2.740898,2.745436,2.835553,1.652417,1.914356,2.425424,very_high
0.742707,0.466310,0.399983,0.711122,0.270838,0.736749,0.687921,1.023017,1.136254,0.760045,1.932118,1.282009,0.463230,1.912196,1.451545,1.428691,2.378015,1.889076,low
0.425493,0.075700,0.057392,0.051966,0.582587,1.426056,1.816264,0.531357,1.900016,2.454712,2.947830,2.704331,0.170805,2.616981,1.239951,2.997561,1.954161,1.686813,very_high
0.345935,0.387826,0.583307,0.859748,0.289421,0.080556,1.889751,1.871600,2.439454,2.957445,0.935292,1.363511,1.446948,2.565931,1.405398,2.341964,2.954668,2.684617,very_high
0.371039,0.803538,0.884343,0.458253,1.622461,0.772831,0.012257,0.915838,0.891266,0.769025,0.558802,0.591191,0.567388,1.829077,1.339145,1.811343,1.669370,2.569175,low
0.987650,0.901774,0.151743,0.262416,0.445298,0.812646,0.928270,0.255182,0.641163,0.168395,1.209930,0.479606,2.812198,2.001960,1.181349,1.151305,2.965146,2.966552,low
0.040109,0.203473,0.597808,0.241765,1.434807,0.333676,0.049312,0.865410,2.000686,2.446627,1.412398,1.418951,0.030910,2.400970,2.595678,2.197341,1.129948,1.743862,medium
0.867031,0.066974,0.664739,0.483014,1.886597,0.046171,1.817386,0.254107,2.010960,1.860690,2.686085,2.288017,1.237859,1.062297,1.991076,2.283403,2.367522,2.813665,very_high
0.578675,0.877350,0.419335,0.886832,1.055544,0.266762,1.036815,1.005063,2.703394,2.879096,1.679821,2.991615,2.780243,2.781623,1.777039,2.632812,1.908438,1.174804,very_high
0.438615,0.389405,0.701098,0.378348,1.080058,1.309243,0.149888,1.122551,0.047837,0.756718,0.876543,2.362226,1.153255,2.539632,2.901256,1.577154,2.644275,1.822932,medium
0.725258,0.541761,0.410732,0.749726,0.922067,1.604578,0.220553,0.675512,2.559122,0.213083,2.227903,2.631036,0.279328,1.498832,1.742017,2.962856,2.579232,1.930748,high
0.486669,0.968066,0.504637,0.096819,0.651780,1.976407,0.767018,0.143301,1.563007,1.477327,1.517496,2.243497,0.908685,2.962360,1.333945,1.878931,2.600420,1.881749,high
0.873423,0.066565,0.007353,0.476057,0.951310,0.692727,1.880468,1.887007,1.863906,0.256398,0.486396,2.686305,1.494031,1.358781,1.548086,1.591888,1.189477,2.250196,low
0.900702,0.648318,0.691720,0.991686,1.205615,1.198758,1.385818,1.546706,0.274114,0.785370,1.730459,0.228881,0.555455,2.828173,1.477933,1.696899,2.644731,1.340416,low
0.421721,0.074105,0.661343,0.770438,1.971983,1.874290,1.735238,1.677762,1.297845,0.377934,2.734184,2.789795,1.399685,1.648947,1.997483,2.039172,1.428080,2.732904,very_high
0.276828,0.375469,0.038401,0.210528,1.875529,0.334084,0.732913,0.733737,0.681907,0.672397,2.527868,1.189218,2.509030,2.526293,1.583010,2.873403,1.051361,2.103528,medium
0.592350,0.803815,0.368250,0.501441,1.724306,1.435291,0.086427,1.521662,0.762675,0.318434,1.760430,2.764843,2.617854,1.912753,2.032122,2.470318,1.435477,2.808419,very_high
0.912363,0.433472,0.979032,0.233625,1.778261,1.509957,1.948635,0.970746,1.512285,2.861718,1.131250,0.227199,0.147782,2.472935,2.338587,2.154219,1.958570,1.005263,medium
0.210662,0.997182,0.420737,0.409561,0.935698,0.177951,0.034346,0.402167,2.437368,0.835688,0.260936,2.145729,0.482710,1.311566,2.554598,1.325621,2.484223,2.259976,low
0.622967,0.559059,0.501945,0.780084,1.314889,1.722499,1.895303,0.248847,2.231343,1.331693,1.408947,2.207066,0.825870,1.539013,2.420316,1.298707,1.437265,1.824916,medium
0.631560,0.321162,0.909930,0.771225,1.790133,1.626210,0.737355,0.690102,1.773000,2.695835,2.256238,2.990733,1.784598,1.199716,1.411181,2.004394,1.226015,2.010198,high
0.733113,0.220111,0.717262,0.228100,0.785902,0.066806,0.020181,0.275104,1.618255,2.031965,1.080821,2.306566,1.082984,2.730288,1.231799,2.457417,2.291935,2.487609,high
0.131568,0.350521,0.582070,0.922223,1.923525,0.182169,1.378314,1.996538,1.281918,1.854112,0.706340,1.147721,2.532123,1.592586,2.084900,2.502024,2.967796,1.454303,high
0.715825,0.372533,0.797805,0.592568,0.831572,0.098254,1.961081,0.098378,2.918130,2.116690,2.794139,1.671746,2.150016,2.388952,1.397824,1.451829,2.201741,1.409799,very_high
0.909033,0.068714,0.864366,0.379924,1.202165,0.669487,1.931251,0.882287,1.680578,2.486467,2.464667,1.099653,0.301368,2.640442,1.169867,1.200199,2.382115,2.406016,high
0.179683,0.369574,0.456888,0.501936,1.419609,1.018578,0.321874,0.904187,0.761899,2.633008,1.914827,0.588056,1.873673,2.802836,2.054189,1.768922,2.122335,2.042732,high
0.237543,0.464239,0.475108,0.605071,1.901184,1.064695,0.362496,0.601264,0.690272,1.927919,0.410350,0.745507,0.339038,1.212594,1.653588,2.836345,2.564697,1.467278,low
0.971395,0.722738,0.386051,0.559891,0.489233,0.535334,1.131078,1.142703,1.834059,2.670022,0.434727,0.666032,0.765107,2.786030,2.512298,2.090735,2.951609,1.968037,high
0.180977,0.656729,0.966706,0.486405,1.492262,1.823194,1.274610,0.299954,1.568483,1.606193,0.309659,1.646446,0.533612,1.394506,1.628383,1.640200,2.088258,1.919117,low
0.854385,0.708766,0.697166,0.504933,1.041631,0.736526,1.478836,1.567825,0.023093,0.831873,1.848890,2.718482,0.519186,2.473804,2.957434,1.647275,1.833581,2.382889,high
0.492278,0.008364,0.083223,0.176412,0.537114,0.091100,0.362101,0.664895,2.490196,2.640230,0.346688,2.738180,1.849187,2.457698,2.517046,1.264174,2.720686,1.005322,high
0.247231,0.217667,0.862960,0.812733,1.553214,0.600454,1.918014,1.182685,2.112367,1.624418,2.527882,0.164291,1.690815,1.017006,1.115386,1.946447,2.939457,2.173521,high
0.870750,0.661684,0.480560,0.541760,1.104445,1.062219,1.277479,1.431278,1.985488,2.718413,2.978895,0.239698,0.528084,1.441248,2.017745,2.582725,1.258363,2.211356,high
0.445305,0.483989,0.068754,0.131080,1.321948,0.816444,1.694094,1.778084,0.206342,0.120503,1.099045,0.735357,2.970518,1.983817,2.125241,2.937117,2.156342,2.491020,high
0.514817,0.005313,0.549717,0.766157,0.645802,0.547685,1.080131,1.671575,1.086168,1.192547,1.361010,0.765178,1.265510,1.840069,2.390605,2.003190,2.584920,2.778461,high
0.359233,0.804495,0.417164,0.932444,0.962548,0.262646,0.828554,1.216618,2.806147,2.843415,2.135002,0.284668,0.291208,2.837147,1.995594,1.334430,2.066679,1.880380,high
0.592951,0.772810,0.877749,0.947307,1.234709,1.638329,1.954366,0.776786,2.587768,0.748950,2.811459,1.165390,0.361707,1.719482,1.966887,2.365901,1.818394,1.685040,high
0.163524,0.548419,0.203995,0.369018,0.809822,1.992290,1.164243,1.006409,0.856629,2.824609,2.682281,1.763176,1.751681,2.873967,1.735877,2.513583,2.310460,1.204641,very_high
0.391082,0.066463,0.826465,0.135517,0.396745,0.659084,1.733747,1.537470,0.471177,2.861707,0.172775,1.734487,2.937208,1.918859,1.542923,1.143399,1.540256,1.673672,low
0.969412,0.766515,0.557689,0.518400,1.923281,0.763242,1.906585,1.755091,1.347264,2.646427,0.507215,1.630289,1.715853,2.928706,2.892400,2.700278,1.698267,1.136969,very_high
0.258133,0.583714,0.054610,0.112609,1.022935,1.236075,1.350709,0.207564,1.067491,1.691004,2.263792,1.016016,2.847124,2.474710,1.635193,2.658645,2.984553,2.605640,very_high
0.656737,0.781960,0.971845,0.933987,1.467841,1.436883,1.097877,0.769713,2.046679,1.940818,2.066679,2.119367,1.332399,2.658669,1.126843,1.945082,2.272931,2.614012,very_high
0.325190,0.751747,0.512615,0.183580,0.822094,0.784059,0.007022,1.552233,2.899304,2.608851,0.399656,2.479452,1.307523,1.209754,1.334569,2.120845,2.745855,1.834475,high
0.773473,0.803002,0.290877,0.252766,0.710264,1.809859,0.080039,0.863304,1.089004,2.327691,1.506194,1.038823,1.500022,2.172283,2.714553,2.426816,2.615537,1.519282,high
0.130874,0.518008,0.469407,0.406637,0.814329,1.120008,0.401702,0.664456,0.186673,1.890282,2.342444,0.256606,2.092276,1.285401,2.173267,2.353496,2.304545,1.236040,low
0.969821,0.140325,0.857858,0.383164,0.818393,0.900780,0.372017,0.822645,2.692842,2.946778,0.656342,0.888991,1.102848,1.595242,2.557561,1.033072,2.681458,2.702474,high
0.453790,0.671157,0.304903,0.794663,1.088360,1.293346,0.509518,1.205689,0.113849,2.057030,2.613863,0.412106,2.591658,2.247131,2.617563,1.244871,1.574317,2.754991,high
0.236050,0.620474,0.192676,0.456317,1.086940,1.905608,0.609869,1.999610,2.858298,2.926446,0.158915,1.402076,0.087844,2.452451,2.646473,1.325181,2.274233,1.532579,high
0.073497,0.742253,0.129071,0.170768,0.994308,1.589105,0.720131,0.985985,1.993738,0.172165,2.346585,0.467805,1.319293,1.078368,2.101227,2.511352,2.181207,2.243521,medium
0.169758,0.169881,0.297859,0.267210,0.269572,0.080026,0.841075,0.416989,2.825068,0.416881,1.847457,1.388534,1.532976,2.061887,1.354241,1.880167,2.244839,1.517307,low
0.519774,0.194975,0.780048,0.509113,0.992151,0.664620,0.197733,0.325693,0.598979,1.354377,0.945598,0.663009,1.821097,2.130628,1.296466,2.091005,1.337264,1.450253,low
0.337003,0.890410,0.471626,0.147454,0.338208,0.941089,0.084724,0.084699,0.122099,1.154638,2.162798,2.216193,0.828216,1.157656,2.147969,2.545375,1.554486,1.042416,low
0.828883,0.749978,0.227482,0.611656,0.252272,0.629035,1.347889,1.117634,1.464630,2.348205,2.347097,0.082705,1.282440,2.001376,1.733029,1.681965,1.573317,2.154319,medium
0.430888,0.908228,0.166185,0.565747,1.865291,1.400375,1.074670,1.089144,1.351870,0.481842,2.801697,1.664239,1.453613,2.427685,2.116096,2.497780,2.203892,1.299883,high
0.248714,0.758715,0.332729,0.714702,1.209900,1.652538,0.888288,0.410468,0.994477,2.928286,1.103324,0.508465,2.060730,1.106455,1.996956,1.884599,2.945094,1.024742,medium
0.617145,0.597155,0.939924,0.937705,1.318980,1.462690,1.268880,1.390659,2.872969,0.945198,2.058050,0.002976,2.320633,2.520536,2.204396,1.754360,2.908135,1.209702,very_high
0.706777,0.654133,0.343027,0.912255,0.803587,1.978667,1.655359,1.482214,2.467751,1.286771,1.807849,2.607600,2.213482,2.152853,1.064224,1.666075,1.454379,1.627538,high
0.167042,0.889128,0.988124,0.946076,1.817962,0.545095,0.855386,0.518196,1.984746,0.824235,1.575618,2.014583,1.024749,2.666454,1.065673,2.929890,1.609690,2.338326,high
0.167619,0.578807,0.485230,0.244716,1.275861,1.749979,1.282239,0.688200,0.488575,1.738091,2.671249,0.296828,2.998352,1.436125,2.443190,2.543947,1.072124,1.405246,medium
0.036671,0.632391,0.179164,0.131565,1.538340,1.533245,1.907144,1.980943,2.202970,0.175886,0.009502,1.992217,2.545996,2.666547,1.386254,1.040392,1.797631,2.775181,high
0.736402,0.156477,0.891140,0.302277,0.737125,0.724358,1.679249,0.748529,2.181037,0.449033,0.846335,1.834942,0.780070,1.189122,2.304397,2.914831,2.669348,1.576977,medium
0.663805,0.473921,0.460355,0.895085,1.920024,1.468249,0.852002,1.521603,1.275205,2.237393,1.614832,1.420070,0.585317,1.807659,2.093152,2.550879,2.831503,1.662453,very_high
0.474631,0.716397,0.709671,0.972053,1.640923,0.208152,1.289434,0.905451,2.774358,0.559502,0.534880,1.257774,0.942064,1.398970,2.963589,1.298349,1.472993,1.435954,low
0.844170,0.270943,0.983712,0.859325,1.707897,1.578667,0.354142,1.586690,0.500934,0.706543,2.723600,2.661209,1.357035,2.752042,2.670812,1.152676,1.531589,1.507611,high
0.805670,0.202254,0.050175,0.110018,0.344389,1.064661,1.121044,1.538046,0.802013,2.378947,1.942785,0.735444,2.552398,2.409840,1.826269,1.616388,1.441700,1.148270,medium
0.585354,0.313827,0.096695,0.947428,0.541926,0.584580,1.962657,1.335512,0.189673,0.279904,1.433649,1.194930,2.335087,1.050724,2.232826,2.248363,1.700207,1.589541,low
0.868271,0.241501,0.720457,0.423358,0.571253,1.311555,1.036630,1.709557,2.386353,1.312421,2.444105,0.987346,2.553738,1.019047,1.234579,2.233093,2.609519,2.719235,very_high
0.205841,0.214913,0.281825,0.009310,0.541818,1.283240,1.855277,1.878437,1.865278,0.069190,1.352659,2.313603,0.815871,1.582499,1.772772,1.551700,2.293715,2.376849,medium
0.111920,0.424851,0.184301,0.442394,1.710816,0.418972,0.814670,1.159967,0.944821,1.040422,1.675959,2.749396,1.780384,1.286566,2.467775,1.891350,2.571882,2.750536,high
0.269750,0.907839,0.039362,0.046069,0.063770,0.060795,1.997690,0.474938,0.491441,2.096944,0.008253,2.549345,0.849747,2.260609,2.245343,1.423780,2.166062,1.209718,low
0.057087,0.507060,0.021847,0.543878,0.152200,0.867245,1.158440,0.797258,0.120443,0.270310,1.097102,2.393112,0.327069,2.327594,1.968943,1.101157,1.515466,1.911233,low
0.531170,0.187920,0.774486,0.338554,0.547830,1.139024,0.084538,1.516611,0.500237,2.665004,0.416371,2.960370,2.052593,2.883902,1.353058,2.033941,1.455988,1.458510,medium
0.936606,0.076972,0.134433,0.473435,0.399746,1.753211,1.173510,1.301767,1.359854,2.728497,2.069066,2.091434,0.428993,2.904080,2.606292,1.693982,1.018001,2.442431,very_high
0.039344,0.696156,0.467721,0.613170,0.463719,1.856434,0.549145,0.355597,0.741531,0.314971,1.437081,2.253161,2.003093,2.317793,1.546333,2.085765,2.561964,2.940476,high
0.122110,0.382799,0.605897,0.868801,1.595886,1.057610,0.064963,0.102479,0.776947,2.972197,0.905273,2.948408,1.943893,1.011350,2.640958,2.893015,2.694242,2.630719,very_high
0.452199,0.821831,0.428352,0.661902,1.126253,1.507607,1.641707,1.365923,2.626729,0.892589,1.403497,0.020972,2.430745,1.717996,2.223218,1.286741,2.536565,1.070556,medium
0.933875,0.659511,0.027107,0.434049,0.011541,0.878607,0.551459,0.502158,1.545413,0.252305,0.628890,1.902145,0.418664,2.026283,1.745463,1.003924,1.148804,1.633319,low
0.316156,0.796241,0.783502,0.819428,0.858646,1.492164,1.593097,0.999340,2.187756,0.015201,2.775260,2.216915,2.350440,1.998360,1.081210,1.153756,2.524443,1.057159,medium
0.507235,0.271946,0.010513,0.905582,0.815770,0.409603,0.576435,1.493494,0.107133,1.225569,0.161918,2.753481,2.997830,2.206681,1.464838,1.925417,1.091535,1.080334,low
0.041573,0.692359,0.761890,0.119760,0.227891,0.742129,0.388653,1.125334,1.095490,1.889430,2.596251,2.651533,2.553127,2.921103,2.778142,2.413864,1.211186,1.159031,very_high
0.148343,0.264062,0.893304,0.531933,1.352284,1.268456,1.947871,0.166605,1.437508,0.996538,1.534076,2.525882,2.255436,2.770385,2.635949,2.161527,1.880951,1.552654,very_high
0.986630,0.939068,0.432840,0.284512,1.404194,0.036316,0.723291,0.371160,0.559251,2.510152,1.856839,2.837374,1.986496,1.217816,2.149707,1.989789,1.952294,1.608406,medium
0.965119,0.636374,0.535542,0.047061,1.441786,1.444923,1.202752,0.438656,0.360575,2.149819,0.907817,1.612138,1.265344,1.531961,1.932645,1.707926,2.632237,1.800907,medium
0.004940,0.324512,0.476983,0.668547,1.456942,1.671071,1.219963,0.515729,2.610911,1.050485,2.900093,0.020760,2.191501,2.666219,2.294285,1.619948,2.359054,1.809862,very_high
0.951812,0.269512,0.389209,0.862771,0.000106,0.798283,1.120947,1.130807,2.818295,2.202929,0.845553,0.033163,2.172534,2.648614,1.932496,1.752572,1.306640,2.542818,high
0.639120,0.190927,0.887425,0.162903,1.907842,0.895885,1.829391,1.007932,0.236420,2.821463,1.766634,1.633917,1.894495,1.550741,2.288610,2.223270,1.452294,1.282806,high
0.867918,0.694641,0.893934,0.812414,1.628418,1.702564,1.348882,0.406320,1.047056,0.279288,2.980250,1.305817,2.388835,2.461176,1.614808,1.335508,1.571350,1.315481,medium
0.454740,0.218716,0.335816,0.853396,1.807963,1.551309,0.807466,0.135110,2.874857,0.918312,2.643283,1.353735,1.346292,2.344075,2.676994,2.542724,1.247345,2.253178,very_high
0.515596,0.595303,0.615070,0.914340,0.031287,0.576299,1.724761,0.342864,0.249485,1.389978,1.608989,1.201214,0.363758,1.947048,2.403836,2.150506,1.575290,2.143484,low
0.488847,0.264635,0.926908,0.265285,1.867718,0.647952,0.362126,1.968763,1.930924,1.493970,2.971124,2.753177,1.677203,1.402910,1.659951,1.538313,2.457196,1.308009,high
0.666864,0.661969,0.962058,0.903953,1.619577,1.357756,1.088474,0.937094,2.916664,1.626587,2.104110,1.077511,0.795131,2.777286,2.661332,2.002306,1.482803,2.704529,very_high
0.139651,0.814940,0.508959,0.320663,1.674438,1.126396,1.901101,1.734691,2.934671,0.901881,0.626101,2.568681,1.153299,2.355702,1.974685,2.925557,2.670719,1.658119,very_high
0.029974,0.778025,0.452825,0.552338,0.186575,0.324459,1.250795,1.697505,1.413670,2.001779,1.216789,2.708594,0.052245,1.337986,1.349278,1.040983,1.939034,1.733935,low
0.307930,0.760851,0.278694,0.050507,1.477556,0.619860,1.633937,1.023039,0.488247,1.935254,1.003480,1.498505,1.148372,2.409605,1.155425,1.399045,1.645872,1.840920,low
0.704681,0.187722,0.958872,0.043881,1.919833,1.799967,1.307121,1.413375,0.606253,1.733465,1.032041,1.340814,2.426403,2.482867,2.399211,1.896760,1.824836,1.645404,high
0.201853,0.088385,0.142814,0.720373,1.357095,1.376349,1.678742,0.385504,2.668804,0.341285,2.281369,2.283062,1.628167,2.773761,2.730242,2.276879,2.418993,2.114910,very_high
0.673432,0.698949,0.579830,0.444480,1.141123,1.971949,1.888976,1.376793,2.735049,1.430904,1.752789,2.123915,0.029402,1.445679,2.614884,1.424457,2.033585,1.777295,high
0.969912,0.368347,0.282550,0.256292,1.891259,1.534025,0.545843,0.544769,1.823639,1.068681,0.114278,0.985605,1.409531,2.977508,2.311302,2.862808,1.014557,1.518869,medium
0.093901,0.432346,0.279008,0.190413,0.885874,1.883949,0.339322,1.664124,2.298529,1.473115,2.632345,0.307644,0.874355,1.306787,1.282750,2.285144,2.844648,2.808950,high
0.672602,0.031149,0.404969,0.669953,1.198587,0.432377,0.967982,0.167448,2.219794,2.765599,0.890388,0.794557,1.432652,2.201378,1.188088,2.754864,1.131992,1.616701,medium
0.443750,0.259576,0.998793,0.000402,0.952677,1.542970,1.403725,1.546277,1.985465,1.441594,2.991225,0.393086,1.214078,2.314353,1.690059,1.658636,2.877243,2.396978,very_high
0.868142,0.033676,0.054966,0.805891,1.865692,0.040435,0.454383,0.199874,2.481831,0.041942,2.862572,0.884197,2.795938,1.837906,2.709822,2.657908,1.056306,1.694454,high
0.177150,0.879186,0.578542,0.079250,0.152169,1.341520,0.008203,1.762378,2.056220,1.316510,2.821592,0.785465,0.123532,1.950075,2.923473,1.756438,2.541959,1.870440,high
0.692626,0.243397,0.082572,0.191490,1.002239,0.938565,0.685870,0.608409,1.602007,2.461945,2.433383,1.913134,2.050764,2.781820,1.482722,1.505504,2.069349,1.471887,high
0.838115,0.557337,0.154521,0.386236,1.373905,0.693520,1.937719,1.308787,0.710869,2.340183,0.661840,2.863488,2.553080,2.290548,2.524191,2.823311,2.011452,2.504659,very_high
0.944614,0.038979,0.439563,0.484859,1.583813,1.724809,1.389935,0.975005,2.231664,1.540170,1.597898,2.057231,2.877716,1.994002,2.147738,1.184437,1.145557,2.474407,very_high
0.683248,0.666847,0.510460,0.354995,1.166037,1.708535,0.802651,0.732606,1.420314,0.749307,0.672908,2.779948,0.532909,1.256699,1.063615,2.885778,1.477490,1.044480,low
0.497175,0.323027,0.258792,0.320712,1.817835,0.044603,0.385152,1.290884,0.884375,1.395266,0.779026,2.352397,1.593914,1.014675,2.085833,1.917030,2.555095,1.120388,low
0.617847,0.897919,0.316457,0.963916,1.883983,1.219010,0.712179,1.895046,2.405839,1.691107,1.832855,2.183633,0.130769,1.249937,2.611881,2.985251,2.782520,2.844753,very_high
0.868905,0.888118,0.086967,0.641580,0.128638,0.735664,0.339679,0.082539,2.090141,2.999614,0.122501,1.242186,1.497551,2.912369,1.552246,2.079189,2.058237,2.777654,high
0.570610,0.325291,0.303220,0.023433,0.804741,0.831322,0.212612,1.837706,2.812019,1.932534,2.908376,0.974384,0.376374,2.528174,2.794723,2.514976,1.706687,2.012174,very_high
0.030387,0.900961,0.966558,0.430176,0.046918,1.664081,1.813485,1.218163,0.496325,2.082795,2.756020,2.538832,2.513690,2.934233,1.472521,1.014142,1.119886,1.986715,high
0.930949,0.996158,0.944707,0.875009,0.658833,0.619680,1.995301,1.614629,1.947568,1.474362,1.142303,2.716180,0.341610,1.071417,1.152946,1.993334,2.364357,2.624848,high
0.689527,0.825416,0.334878,0.301456,1.073736,1.886098,0.328229,0.767750,0.732718,1.063469,1.546267,1.355647,1.539865,2.360441,1.319879,2.474907,1.556893,1.276900,low
0.676513,0.844871,0.570854,0.094556,1.821590,0.359268,0.109045,0.943686,2.710749,2.438859,1.398358,0.027189,1.563288,1.088587,2.674006,2.565654,1.110027,2.307398,medium
0.215675,0.249009,0.909595,0.758385,1.693109,1.325445,0.659462,1.737702,0.298498,1.484797,2.646599,2.377593,2.914951,2.564113,1.834612,1.316097,2.331703,1.951966,very_high
0.658885,0.576702,0.006184,0.606014,0.254999,1.344210,0.923318,0.829696,1.968485,2.984070,2.065806,0.855207,1.964942,1.761900,2.593891,1.837942,1.971440,2.486662,very_high
0.393864,0.067256,0.810684,0.570313,0.186061,0.504390,0.409642,1.069319,2.373257,1.371362,0.834334,0.029664,0.863521,1.191531,2.062466,1.838144,1.023924,1.060206,low
0.651233,0.094918,0.948370,0.053577,1.178535,0.649501,0.602850,0.040390,1.064754,0.204001,1.340524,2.414966,0.722398,2.136093,1.961118,1.207282,1.221848,2.185451,low
0.106593,0.998893,0.091326,0.140499,1.064236,1.669597,0.401741,0.317196,2.862414,2.047734,1.286898,1.552243,0.384745,1.560240,2.613826,1.886091,2.398404,2.113456,high
0.657845,0.326639,0.161448,0.622549,0.532755,1.523611,1.548521,1.283373,2.552192,0.139924,2.878006,2.055632,2.269544,2.319148,1.846975,2.614186,1.127343,2.681697,very_high
0.999414,0.748184,0.960746,0.207824,1.798906,0.658192,1.425156,1.433954,0.883855,0.751505,0.525933,2.744069,2.072270,2.316350,2.604065,1.600361,2.731926,2.353673,very_high
0.048212,0.806665,0.537540,0.504070,1.854733,1.067913,1.269903,1.165202,0.022623,1.061215,0.268729,1.623521,1.829631,2.410015,1.201324,1.865149,1.622653,2.760321,low
0.977174,0.858023,0.014197,0.544882,0.805223,0.123361,0.774436,0.286620,0.889972,2.218451,2.641856,1.509582,0.122521,2.984930,2.272622,2.921917,1.177333,2.774547,high
0.406908,0.997628,0.257632,0.283507,1.780605,0.417492,1.818082,0.890811,0.843931,1.482708,2.690058,0.871986,2.288487,1.773395,2.405174,1.063416,2.519515,1.816328,high
0.870753,0.241496,0.449944,0.948425,0.767898,0.971641,1.939065,0.710190,2.669894,0.085938,2.615217,0.915582,1.925663,1.930631,2.798195,2.183044,2.048854,1.274868,high
0.782385,0.040351,0.692909,0.842464,1.473634,0.171947,0.347279,0.991323,2.901364,1.850550,1.532931,2.389626,2.891667,2.609223,1.448648,2.486872,1.613280,2.260567,very_high
0.567016,0.411192,0.733160,0.722374,0.951884,1.686665,0.446025,1.740658,0.211320,1.234309,1.979233,1.347088,1.761606,2.156740,2.208440,2.521765,1.812197,2.747492,high
0.738449,0.130081,0.995422,0.077994,0.245166,1.436012,1.051262,1.551723,1.413884,2.765504,1.690089,0.490579,0.911856,1.074514,1.866513,2.431876,1.042825,1.149907,low
0.878516,0.022426,0.287511,0.106130,1.855868,1.887267,0.182501,0.167979,1.644996,1.498687,0.208343,0.283586,1.144562,2.686157,1.765543,2.452903,2.325397,2.115847,medium
0.404140,0.360427,0.538220,0.492781,0.908193,1.386934,0.872897,1.780618,0.278735,2.126925,1.787505,1.418760,0.527522,1.102997,1.213427,1.118025,1.731547,1.229999,low
0.327033,0.783738,0.533324,0.160713,1.468974,1.880803,1.163583,0.943534,1.132493,0.656605,0.040842,1.394865,2.168743,1.341640,1.268467,2.068273,2.428075,1.053992,low
0.667593,0.566181,0.405645,0.978265,0.734348,1.109025,1.044147,1.487724,0.951247,2.282921,0.974962,1.960375,2.123165,1.204160,2.673977,2.565938,2.256342,2.359271,very_high
0.807846,0.312778,0.169162,0.158520,0.037762,1.200437,0.661817,0.280078,1.608169,2.162866,2.796878,1.413202,0.601950,1.155854,2.499507,1.188130,2.302508,2.363699,medium
0.762285,0.654342,0.977457,0.487468,0.201061,1.953942,1.084892,1.341439,1.983573,2.712245,0.912136,0.430427,0.475468,1.051370,1.764682,1.024100,2.585785,2.201316,low
0.797814,0.232018,0.853317,0.364121,0.992439,1.284258,1.917602,0.472652,2.110455,0.101465,2.819480,1.523409,0.231015,1.110055,2.656973,2.629124,2.262316,2.718446,high
0.435583,0.014381,0.498333,0.639386,1.379929,0.061573,0.412035,0.876762,0.410265,1.342502,0.750402,2.720368,2.735927,1.884878,1.161532,2.424589,1.837452,1.161753,low
0.817834,0.764353,0.603245,0.129036,0.669471,1.447606,1.309663,0.033726,2.438843,2.037466,0.943687,0.478324,0.699210,1.505705,2.249548,1.824413,1.779855,1.210521,low
0.120209,0.623743,0.227261,0.430316,1.390977,1.810937,0.086793,0.303221,2.035626,0.285492,1.885222,2.069264,1.032491,1.253074,2.736352,2.880793,1.239164,2.729071,high
0.544489,0.762303,0.543787,0.274705,1.397271,1.591160,0.132833,0.184161,2.667225,1.231812,2.284881,1.781578,0.841514,2.317411,2.677728,2.533196,2.558887,2.006553,very_high
0.005759,0.038938,0.694970,0.887752,1.407872,1.167667,1.103656,0.479488,1.348008,2.826440,1.504163,2.245757,1.240874,1.452224,1.745566,2.935722,2.522217,1.546106,high
0.324586,0.837120,0.515167,0.040586,0.985044,1.342607,0.209878,0.200036,2.681669,1.307803,2.646347,0.451801,2.142146,1.037898,2.490468,2.858631,1.492597,2.476314,high
0.366462,0.619526,0.990285,0.913727,1.829772,1.980384,0.044694,1.383820,2.597322,2.956214,0.120721,2.824816,2.611787,1.836840,1.854936,1.962587,2.725364,2.788807,very_high
0.396173,0.563395,0.611342,0.832994,0.978393,0.181324,0.343026,0.058080,1.315228,0.170517,2.766585,1.862899,0.547796,1.620866,2.680276,2.509418,2.178007,2.379207,medium
0.695467,0.624614,0.370974,0.297571,0.900530,1.334490,1.129698,1.235481,1.143430,2.153489,0.588923,2.541213,2.059237,1.637209,2.061524,2.338383,1.957374,2.583865,very_high
0.388558,0.864433,0.772152,0.789291,0.398762,0.566795,1.406682,0.281416,2.798436,1.743049,2.652716,0.739820,1.057686,1.890540,2.529714,2.622890,1.034993,1.564994,high
0.448694,0.586937,0.170463,0.031214,0.615310,1.280181,0.404957,1.890323,2.145494,1.501619,1.202590,2.218239,2.941582,2.337828,1.157143,2.575377,1.765482,1.577551,high
0.237544,0.580950,0.384516,0.966866,0.084669,1.215247,1.336519,1.866188,2.784736,2.912542,2.498271,2.343092,0.896757,2.232958,2.180052,1.306464,2.281342,2.728248,very_high
0.373252,0.990679,0.346959,0.526595,1.267071,0.306914,0.364953,0.451006,2.390924,0.388951,2.014997,1.192306,0.021579,2.874523,2.100568,1.467471,1.179496,2.229726,low
0.227270,0.756730,0.431807,0.303281,0.497071,0.413493,1.226915,1.228843,1.827892,2.687997,0.527825,1.151860,1.546920,2.035433,2.219953,1.531463,1.919135,1.468326,medium
0.073196,0.442294,0.781780,0.362583,0.608311,1.243259,0.823919,0.056011,0.347558,2.073721,2.754143,1.973389,0.452193,1.945140,2.391283,2.636997,2.986872,2.048324,high
0.603449,0.707397,0.484173,0.066405,1.541629,0.256460,1.307599,1.863577,0.874442,0.776988,0.736552,0.280223,0.133483,1.426829,2.836218,2.621483,2.433077,2.371721,medium
0.668213,0.389230,0.794014,0.989350,0.654442,0.530362,1.990106,1.045975,2.906527,2.705007,0.732420,2.206872,2.094808,2.510763,2.571364,1.990671,2.093742,1.437098,very_high
0.619490,0.228875,0.576489,0.039292,0.484392,1.670491,1.875634,0.086446,0.958266,1.287885,2.442537,0.128660,2.196778,1.281552,1.439276,2.161665,2.066066,2.309813,medium
0.463494,0.596852,0.342069,0.654907,0.338115,0.654183,0.008564,0.685000,0.279765,2.442682,0.317620,0.571771,1.382097,1.982266,2.651793,2.653844,1.087530,1.084290,low
0.379786,0.928182,0.809979,0.442736,1.549717,0.976120,1.770878,0.153699,2.122660,1.166510,0.666108,1.992431,2.030657,1.842644,1.244159,1.625187,2.914629,1.607383,medium
0.863334,0.929140,0.238290,0.948916,0.259413,1.882281,0.132982,0.785889,2.202013,2.552792,1.511033,0.294971,1.614718,2.316602,2.244397,1.100358,2.856355,2.347944,high
0.519082,0.341905,0.224383,0.246000,0.907508,0.454298,1.906093,1.339853,0.856373,1.909887,2.491431,2.915526,1.889403,2.835243,2.765508,1.965193,2.364809,1.298698,very_high
0.479182,0.527677,0.504503,0.532087,1.013860,0.779252,0.563651,0.939780,0.893016,0.423140,0.442452,2.605189,1.790112,2.893191,1.202244,2.827434,1.198023,1.444398,low
0.025642,0.211636,0.260849,0.482356,1.374780,1.212916,0.764070,0.767444,1.406679,1.948989,1.643005,1.878907,1.997468,1.335599,2.699385,2.580937,1.415668,2.758187,very_high
0.341248,0.995631,0.009087,0.702866,1.266567,1.510678,0.183276,0.238314,0.065367,0.574034,2.133722,2.457172,0.598892,1.523634,2.597241,1.733235,1.367819,2.348642,low
0.380196,0.981118,0.648298,0.068010,1.621441,1.803307,0.224546,0.489878,2.367969,1.235768,2.581786,2.662740,0.806120,2.623271,2.007551,1.129543,2.039157,1.997837,very_high
0.398823,0.649509,0.511094,0.193789,0.089503,1.830946,1.453481,0.200287,0.951266,0.510887,2.806697,0.778427,1.319889,2.036560,1.617795,2.273839,1.415608,1.421787,low
0.580172,0.804414,0.445518,0.214565,0.592881,1.553280,1.888664,1.614997,2.561289,0.066048,2.353920,2.548235,1.338384,1.906069,1.810876,2.668982,2.391601,1.682819,very_high
0.533603,0.715100,0.966969,0.738151,0.560268,0.456662,1.221497,0.270480,2.407891,0.635660,1.958485,0.584381,2.323235,2.421251,2.937316,2.329897,2.090460,2.148661,very_high
0.607905,0.593158,0.571199,0.189139,0.292034,0.049619,1.431700,1.190747,1.984206,1.609116,1.300860,1.240027,1.102181,2.203850,1.403395,1.850149,1.035316,1.310625,low
0.764883,0.053348,0.863432,0.573492,0.578357,0.767548,1.523939,0.685481,0.974625,1.444683,0.336330,1.674779,0.487515,2.941428,2.159209,1.246707,2.488114,1.963488,medium
0.812986,0.454764,0.139450,0.215244,0.619531,0.283098,0.525629,0.451957,1.548950,1.504491,2.129212,2.141673,0.754398,2.167949,1.166481,2.821548,1.377657,1.817949,medium
0.718123,0.674786,0.569206,0.861625,1.043769,1.420775,0.090459,1.278937,1.334488,0.743061,2.978212,0.090424,0.644201,1.931948,1.435786,1.551917,2.649770,1.953375,low
0.955524,0.677532,0.867980,0.942185,1.327409,1.322261,0.003745,0.914005,1.016646,2.055484,2.210282,0.871528,2.194980,2.085635,2.526633,1.448574,1.710091,1.211122,medium
0.018233,0.373123,0.583106,0.518493,0.762201,0.087943,0.701299,0.800291,2.544409,2.112790,0.050133,1.825557,1.411019,2.617080,1.605198,2.631953,1.677239,1.212994,medium
0.195778,0.941692,0.718014,0.352309,1.438940,1.673188,0.482928,1.185704,1.450521,1.073903,1.488780,1.072106,2.125892,2.225350,2.971532,2.962440,1.023635,2.928222,very_high
0.007563,0.167357,0.372044,0.234058,0.672331,0.497487,0.124635,0.982535,2.498169,2.643510,1.843940,2.325075,1.248659,2.294096,2.001634,2.320321,2.975458,2.958735,very_high
0.647475,0.500359,0.092450,0.049781,0.580567,0.864454,0.359057,0.606968,0.315655,1.932070,2.069023,1.954956,2.669207,2.942878,2.033079,2.249621,2.224009,1.852329,high
0.898031,0.690884,0.457900,0.268500,1.082376,1.335867,0.248998,1.118123,0.423074,2.139118,2.159178,0.703204,2.950561,2.236791,1.072629,1.638862,1.845460,2.577991,medium
0.243482,0.697136,0.394479,0.654236,0.047433,0.858838,1.829757,1.338997,2.931961,0.832020,1.674325,0.437787,2.009528,1.760570,2.913053,1.040827,1.193243,2.311583,medium
0.927035,0.648639,0.867060,0.533617,0.159578,0.882576,0.280534,0.053386,1.763305,0.001835,0.670081,1.887141,2.591438,2.382652,1.348467,1.383596,2.398296,1.233834,low
0.060267,0.275288,0.243995,0.944041,0.835939,0.131256,1.075297,0.931743,1.529309,2.596127,2.826602,1.351402,1.523800,2.318919,2.076681,2.168861,1.565461,1.593357,high
0.934436,0.156207,0.966734,0.396277,1.885825,0.802887,1.186212,0.115367,1.569468,2.467273,2.089999,0.506871,2.803863,1.027695,1.791349,1.302633,2.976562,1.627303,high
0.351623,0.635940,0.958138,0.693863,1.443024,1.529696,1.086979,0.372811,0.645806,0.369576,0.710520,0.979123,2.494759,1.934659,1.831169,2.767672,2.901095,2.191549,high
0.101421,0.599302,0.247632,0.489323,0.176253,1.830353,0.198113,1.121017,2.156112,1.122315,0.966965,0.909140,2.975336,2.485807,2.286600,1.376289,2.470593,2.159953,high
0.485872,0.179356,0.348052,0.512576,1.692636,0.826994,0.637597,1.732378,0.254342,1.984018,2.765783,0.324396,1.869281,1.998083,2.324177,2.044209,2.942144,2.847017,very_high
0.256777,0.705139,0.895556,0.267774,1.464602,0.847172,0.102541,1.765611,1.719971,1.956333,2.662456,1.640727,2.337620,2.559242,1.308577,2.024026,1.211268,2.580073,very_high
0.284873,0.455172,0.966622,0.454951,1.221893,1.405254,0.791340,0.139888,1.712306,2.581051,1.215439,2.290946,1.628604,1.901767,1.999173,2.207891,1.559831,2.713695,very_high
0.307290,0.667761,0.443439,0.470785,1.640586,1.885544,0.377198,0.838210,2.742565,0.420804,0.114922,1.726401,0.777360,2.966643,2.580955,1.654868,1.506487,2.782457,high
0.803026,0.837367,0.320997,0.706643,0.808220,0.534122,1.123265,1.166013,1.578548,1.289819,0.145492,2.478874,1.064266,1.585783,1.886573,2.747068,1.144025,2.602553,medium
0.539161,0.169728,0.526094,0.940640,0.443002,0.880288,1.385617,0.294140,0.411188,0.291673,0.851755,0.382706,2.682016,1.184245,1.331609,1.888603,2.944453,1.665763,low
0.311308,0.019145,0.687769,0.329321,1.024047,1.591946,1.064240,1.530864,1.718260,1.168786,1.887367,1.306836,0.167844,1.860024,1.626434,2.400307,1.119948,1.430026,low
0.610334,0.779103,0.273475,0.042200,1.097684,1.219387,0.868473,1.488471,0.273983,0.045322,1.752584,1.828245,1.774440,2.083418,1.424759,2.271822,2.713378,2.143535,medium
0.716151,0.609697,0.736473,0.496295,1.076653,0.221173,0.774667,1.806682,0.611382,2.694819,1.901483,2.028005,1.117452,1.698187,1.251635,1.234312,2.536323,2.379137,medium
0.272624,0.699640,0.051657,0.544461,1.130148,1.255465,1.683384,0.016972,0.093326,1.581132,2.151849,2.087359,1.160078,1.484562,1.755162,2.245279,1.751734,1.773136,medium
0.413549,0.838155,0.049294,0.168441,1.897410,0.373493,0.438736,0.433368,1.539881,2.549407,0.057097,2.186896,2.653714,2.344117,2.081872,2.101405,1.037615,2.696677,high
0.121886,0.802811,0.386288,0.760465,1.804491,1.020432,1.468437,1.654373,0.253598,0.179714,0.315257,1.954289,2.561467,1.754250,1.145503,2.797208,1.012192,2.921133,medium
0.181149,0.960920,0.353473,0.984929,1.751434,1.058207,1.514965,1.341160,1.408183,0.682374,1.078450,0.282684,1.796527,2.262737,2.207647,2.761753,1.407988,2.138791,medium
0.681118,0.535935,0.315633,0.945775,1.602834,1.752407,0.838400,1.788780,2.798835,0.778140,0.464580,2.085917,0.818757,2.558143,2.986049,1.301910,1.987753,1.913184,high
0.181438,0.488496,0.491020,0.197106,1.886856,0.924989,0.594601,0.114359,2.159284,1.160074,0.225960,2.174348,1.426369,2.522005,2.928250,1.163370,1.915820,2.685774,high
0.525163,0.401887,0.320734,0.875363,0.196989,0.558885,0.941083,1.193928,0.232235,2.408599,1.922893,2.980440,1.224880,1.750619,2.658347,1.589184,2.170585,1.048539,medium
0.709046,0.153691,0.192258,0.704494,0.530247,0.461933,0.186428,1.138093,0.672629,1.159674,2.446009,2.080087,1.060854,2.135796,1.532682,2.973226,2.543919,1.258025,medium
0.106877,0.572607,0.309470,0.453847,0.990112,1.748504,0.091860,0.071349,2.020987,0.613961,2.257880,2.060491,0.308357,1.899316,1.044815,1.043148,1.754709,2.691315,low
0.567312,0.277013,0.974904,0.540611,1.693069,0.342022,0.223206,1.027044,2.684106,0.194971,2.451119,1.544440,1.629342,2.741611,2.667083,2.345784,1.320727,2.464057,very_high
0.256563,0.921308,0.411113,0.849600,1.010331,0.851737,0.374290,1.219041,0.098756,0.238475,1.997570,2.603769,0.905494,2.757517,1.111440,2.217027,2.600098,1.832273,medium
0.962927,0.583191,0.444713,0.480135,1.496069,0.374346,1.008354,0.382586,2.437353,2.280142,2.206036,2.990504,1.982424,1.687483,1.411256,2.293157,1.665381,2.777704,very_high
0.483546,0.592840,0.576545,0.373207,0.277920,1.546608,1.698273,0.546659,1.685442,1.334409,0.815336,2.337135,0.957612,1.183475,2.088906,1.436572,1.573764,1.702917,low
0.805993,0.354925,0.983341,0.493247,0.504828,0.948745,0.471285,1.280695,1.638274,2.178543,2.979024,1.837501,1.293490,1.335165,1.356756,1.453435,2.528624,2.267691,high
0.550227,0.051989,0.241601,0.579130,1.463552,0.702287,1.870324,0.936602,2.873440,2.046861,0.549497,0.236864,0.157081,1.734003,2.667577,1.861284,2.868279,2.268669,high
0.043413,0.031744,0.681282,0.189078,0.329468,0.722199,1.909816,1.716027,2.242934,0.406087,0.643482,2.180217,2.977614,2.128500,2.554319,1.191716,2.829923,1.368664,high
0.633151,0.423335,0.715985,0.900908,0.702712,1.704428,1.917809,0.684764,2.550357,0.428664,0.866765,2.125685,1.522831,2.313574,2.511539,1.149226,1.274885,1.569703,medium
0.951403,0.084565,0.607324,0.674187,0.529733,1.107548,1.675125,0.533319,1.061987,2.266026,2.925997,2.326704,0.072713,1.662742,2.632255,1.176719,2.006316,2.832014,high
0.601612,0.606847,0.088578,0.633269,0.699723,1.435736,0.727650,1.969732,1.663092,2.163805,2.964866,0.373666,1.623692,2.334998,1.439404,2.145958,1.185741,1.366830,medium
0.819189,0.880973,0.676872,0.099496,1.416648,1.794077,0.145368,1.822272,1.846217,1.134092,2.384681,1.961198,2.611062,2.875480,2.457785,1.795484,2.921952,1.347149,very_high
0.884206,0.882915,0.064095,0.604174,0.735694,1.803483,1.137637,0.057985,0.964752,0.232267,1.887173,0.887172,2.317656,2.304028,1.710563,1.587234,1.430456,1.959231,low
0.228080,0.659045,0.596143,0.120961,1.110527,0.657018,1.117363,1.541457,1.710744,0.036294,1.560188,2.280814,2.102720,1.317130,2.333690,1.631639,1.394859,1.184395,low
0.212045,0.211232,0.739581,0.078698,0.199864,1.904903,1.699952,0.220670,0.709966,0.864471,2.911863,0.721122,0.418394,2.159338,1.244043,1.414567,2.777771,2.789252,medium
0.610981,0.862997,0.210970,0.527311,1.610035,0.049752,1.991982,0.054970,0.430127,0.027667,2.086868,2.051936,1.973211,2.083791,2.411173,1.823011,2.935701,1.200298,medium
0.411028,0.886093,0.841622,0.402786,0.739777,0.753671,1.016315,0.547391,1.121911,0.690218,2.834190,0.884979,2.298895,2.741400,2.944215,1.406116,2.395265,2.233115,very_high
0.839861,0.196654,0.030354,0.588810,1.297068,1.791598,0.690408,0.538692,2.217869,1.258502,0.949652,0.026983,1.717257,1.700606,1.087201,2.396092,1.242010,1.679564,low
0.900023,0.737426,0.843813,0.089222,1.450779,0.549274,0.371803,1.638638,2.748561,0.364247,1.001324,1.900074,2.678247,1.845891,1.187658,1.247865,1.971711,2.608546,medium
0.353421,0.286520,0.460329,0.430983,0.419322,0.546163,0.009600,1.421334,1.373142,0.312833,2.564174,0.339807,0.830969,2.197318,1.247274,2.896484,2.633210,2.179621,medium
0.236871,0.802640,0.217588,0.174787,1.769350,0.605245,1.018227,1.963219,1.928471,2.689312,0.449565,1.977874,0.726434,2.048851,1.861128,1.179638,2.144954,1.776612,medium
0.780526,0.997238,0.133778,0.987100,1.232449,1.224627,1.111037,1.423026,0.309111,1.756410,2.837784,2.776828,2.608709,2.438033,1.581560,2.886921,1.265190,2.967746,very_high
0.274806,0.030026,0.953307,0.561150,0.857450,0.876666,1.649877,0.836511,2.713391,2.803367,1.522423,2.907738,1.876195,1.080778,2.613840,2.666590,1.343775,1.132462,very_high
0.822614,0.897366,0.072666,0.687437,0.364670,1.453470,1.009154,1.397855,1.705813,1.037478,2.779242,0.707769,0.004342,2.127032,1.947574,2.361424,2.728283,2.155573,high
0.423738,0.622631,0.199093,0.325418,1.884602,1.789821,1.832937,1.998918,2.341015,2.031435,1.010378,2.427760,1.059394,1.243344,1.969075,2.824603,2.054058,2.979137,very_high
0.667550,0.973383,0.347822,0.094739,1.510136,1.348399,1.256167,1.420284,2.383324,0.614075,2.147877,1.060660,2.573568,1.630418,2.434076,1.278438,2.411674,2.381905,very_high
0.095535,0.465010,0.620235,0.975871,0.416049,0.408933,1.680672,1.523363,0.769442,1.855021,1.448625,2.701371,0.081959,2.323254,1.723938,1.352630,1.746125,2.479539,medium
0.623859,0.847388,0.544801,0.286259,0.675422,1.865364,0.296603,1.876730,1.587523,0.388757,1.880411,2.362469,0.009744,1.314828,1.706414,1.504305,2.064971,1.064182,low
0.451768,0.062394,0.125643,0.423808,1.619349,0.528986,1.710672,0.227303,2.881439,0.006242,1.513117,0.221765,0.843778,1.617684,2.513853,1.489623,2.954206,1.042726,low
0.586608,0.335279,0.289728,0.649864,1.391355,0.299789,1.350288,1.409569,0.268904,2.794595,2.901347,1.221411,2.742000,2.406013,2.560083,1.621697,1.659406,1.072220,high
0.168014,0.067017,0.238752,0.024697,1.531569,0.179935,0.340466,1.701612,2.049150,1.664683,2.076316,1.011953,2.704433,2.301610,1.028798,2.151262,2.349577,2.983448,very_high
0.736874,0.975343,0.213543,0.810259,0.882402,1.126767,0.379527,1.908757,2.886792,2.780822,0.753957,2.355543,1.556286,1.182079,1.287581,1.056345,1.345011,2.959040,high
0.862797,0.816974,0.411144,0.536578,1.432953,0.227525,1.853001,0.421939,0.901731,1.001495,2.729031,1.230857,1.659711,2.154537,1.426196,1.764545,1.243480,1.669018,low
0.216740,0.852547,0.704031,0.278217,0.772987,0.277552,0.064431,1.007858,2.584344,0.983358,0.882089,2.053765,0.996024,1.294509,1.703201,1.492770,2.567280,1.581964,low
0.095715,0.937965,0.217453,0.061608,0.422526,0.600061,0.925070,1.361110,2.800973,1.201965,1.114815,1.807306,0.731210,1.504543,1.582896,2.213260,2.688216,1.291917,medium
0.023639,0.085103,0.366679,0.162498,1.265354,0.563306,0.626951,0.494935,2.241259,2.118123,0.306371,2.926916,2.445666,1.918423,2.337040,2.970339,2.336623,1.658281,very_high
0.641972,0.385598,0.390917,0.895034,1.952028,1.208479,1.330155,1.200946,0.693985,1.697426,2.699900,2.813355,0.318885,1.218694,2.656270,2.035309,1.316392,1.740300,high
0.607094,0.071035,0.976457,0.686024,0.621202,1.633491,1.679259,0.515158,1.002002,2.776065,0.858336,1.283099,1.462063,2.987294,1.384174,1.851370,1.481176,2.496566,high
0.546697,0.210793,0.954666,0.249902,0.921939,1.522699,0.720756,0.666914,0.107428,0.076323,0.776753,2.170735,1.903192,1.330739,2.125960,1.736487,2.822351,2.732587,medium
0.231947,0.229366,0.800138,0.065601,1.348003,0.524969,0.853804,0.883037,2.494360,2.124588,2.760788,2.488380,0.311041,2.562625,1.735633,2.569898,1.577408,2.493470,very_high
0.390906,0.469107,0.241659,0.690615,1.083013,0.490621,1.963836,1.058380,2.548834,0.990983,2.416581,2.696657,1.558821,2.659678,2.011556,1.143962,2.637721,2.292950,very_high
0.594476,0.268562,0.068037,0.572408,1.686856,1.931583,1.567833,0.898732,1.898131,0.540701,0.423237,0.204403,1.732564,2.988928,2.241516,2.919541,1.571875,2.531800,high
0.496767,0.100978,0.316904,0.404520,1.523485,0.016472,1.794408,0.986391,1.057584,1.531187,2.307974,0.906236,2.227488,1.857306,2.787200,1.835836,2.878925,2.476995,very_high
0.987786,0.167491,0.266795,0.363611,0.116594,1.759441,0.877524,0.597178,0.230433,1.515191,2.739099,0.960690,0.704508,2.748189,1.384585,1.627401,2.828906,1.951499,medium
0.136440,0.147276,0.505926,0.216814,1.996842,0.399457,0.468152,0.317930,2.259173,0.411033,0.235534,1.303338,0.879983,2.915079,1.174013,2.948136,1.086526,1.671703,low
0.695145,0.973077,0.777728,0.669611,1.504805,1.894569,0.823727,0.094700,2.179579,0.605688,2.475645,0.507794,1.708563,1.345788,2.254424,2.871758,2.540828,1.565561,high
0.404319,0.759293,0.858323,0.970668,1.727807,0.684615,1.432184,0.391957,2.737808,1.224494,1.642260,1.488618,2.949379,1.958872,1.788262,2.283868,1.338924,2.358711,very_high
0.428200,0.967761,0.844864,0.175715,1.302395,0.880704,0.218861,1.163887,2.191596,1.226434,2.007592,1.989643,0.652480,1.120022,1.325805,1.037015,1.430543,2.918608,low
0.717598,0.439740,0.359676,0.597117,1.712570,1.414241,0.540938,1.572231,2.486085,0.952674,1.478563,1.492092,2.957711,2.241448,1.234174,2.497070,1.919690,2.162109,very_high
0.692436,0.278368,0.687234,0.424185,0.224766,1.175338,0.093272,0.338495,2.237864,0.445635,2.093409,1.997379,2.143028,2.162812,2.117820,1.671115,2.152636,2.825053,high
0.991256,0.798293,0.312834,0.446689,0.695476,0.635879,0.864695,0.217111,1.892062,0.013121,0.102294,0.199325,2.478246,1.408253,1.600941,1.776560,1.651599,1.028459,low
0.128394,0.326254,0.060906,0.254147,1.752842,1.107662,1.654891,1.498581,1.280899,2.910705,2.288120,2.627962,0.268924,2.595806,2.994853,1.317484,2.150767,2.588941,very_high
0.104110,0.299383,0.701565,0.825135,0.403310,1.461414,0.049327,0.610317,2.706352,2.830498,0.100031,2.817208,0.901261,1.074537,1.811802,2.046916,1.341317,2.707205,medium
0.724339,0.232506,0.009828,0.485256,0.156484,0.084670,1.350647,1.902999,1.952906,1.450951,1.365900,1.853722,0.173209,2.612455,1.424573,2.489105,1.044675,2.261988,medium
0.578387,0.129679,0.409183,0.543406,1.576238,0.022399,1.864992,1.428636,1.195066,2.985155,0.452895,2.644173,1.114641,1.053291,2.257698,1.546022,2.142449,2.868122,high
0.274161,0.256463,0.329379,0.304761,1.670972,0.916134,0.473856,0.653512,0.250408,2.020963,2.470723,0.394338,2.943869,2.313658,1.488510,2.877466,2.034831,2.179826,high
0.079419,0.355320,0.693378,0.181808,0.325304,0.263673,1.387270,0.579085,0.872115,0.206573,0.940983,2.392347,0.315819,1.157539,1.988172,1.389474,2.379308,1.481074,low
0.085658,0.673994,0.766245,0.085910,1.708692,1.328689,1.950204,1.047397,1.631180,0.353155,1.362281,0.357445,1.687118,1.502451,1.965152,1.132525,2.299644,1.431434,low
0.894191,0.062565,0.304095,0.714119,1.373536,0.428105,1.924556,0.158289,0.826906,2.748333,1.286252,1.224031,0.018212,2.443827,1.907115,2.288728,2.794973,2.111673,high
0.191867,0.210507,0.811627,0.196234,1.040165,0.865702,0.469858,0.235353,0.663706,1.890157,2.317506,0.971456,2.138048,1.560810,2.592171,2.698637,1.918937,2.812968,high
0.323372,0.809024,0.293917,0.690075,1.660500,0.395342,0.200662,0.351716,1.582181,2.529551,1.443433,1.756775,0.591578,2.022348,1.433226,2.906266,1.016739,1.144736,low
0.226656,0.146922,0.446326,0.390376,0.838498,1.096967,0.296565,1.549447,0.509461,2.694809,2.366875,0.904544,0.388754,2.830497,2.808615,2.534342,2.261305,2.208781,very_high
0.354996,0.342645,0.727019,0.415775,0.387988,0.232107,1.404071,1.027715,2.401230,1.343826,0.220525,1.911941,1.011053,1.099269,2.582681,1.399300,2.350265,2.539607,medium
0.069424,0.864659,0.692920,0.469177,0.569705,0.046214,1.451518,0.021134,1.453104,0.145578,0.574782,1.102162,2.313133,2.622160,1.666245,2.955322,2.042990,1.230804,low
0.519060,0.154925,0.987368,0.367709,1.010328,0.102263,1.348473,1.347033,1.721588,0.564841,1.654603,2.582371,0.319839,1.130544,1.361205,2.838872,2.378610,1.233539,low
0.067613,0.082737,0.225161,0.100620,1.062662,1.908517,0.672157,0.847380,0.442150,0.199716,2.841265,1.901652,0.689517,1.253590,1.559070,1.326335,1.647168,1.732256,low
0.800357,0.484538,0.662318,0.309632,1.611162,0.284572,0.339554,1.021705,0.973729,0.566220,0.224274,0.645895,0.025393,1.238638,1.665272,2.117572,1.297617,1.547762,low
0.233712,0.302420,0.609682,0.663734,1.582705,1.416957,1.161522,0.428232,1.230269,1.231599,0.129253,1.008388,2.905245,2.988205,2.113866,2.111035,2.329107,1.396628,high
0.540012,0.563408,0.915098,0.665784,1.162733,0.135852,0.967361,1.103564,2.424638,0.354590,0.469652,2.542263,1.776437,1.360373,1.092736,1.885070,1.490373,1.397388,low
0.880079,0.803805,0.156362,0.286224,1.561571,0.216321,1.457668,1.958306,2.310479,0.500200,1.923459,1.159439,2.159699,2.793524,2.828718,2.968563,1.912632,1.261338,very_high
0.650877,0.137148,0.751798,0.460103,0.383547,1.017753,0.882720,0.146889,0.668932,1.337465,1.196979,1.607397,1.954150,2.981864,1.197350,1.119244,1.983245,2.221708,low
0.532958,0.580699,0.568269,0.193447,0.100129,0.929742,0.677279,0.567835,1.848537,1.020513,2.476657,1.946826,0.433094,1.767570,1.558547,2.254418,1.954399,2.376251,medium
0.324334,0.505509,0.274666,0.210372,1.747268,1.903161,0.586957,0.485995,0.730369,1.402974,0.215799,1.043429,1.784820,2.262097,1.218575,1.410607,2.196898,2.405872,low
0.333002,0.144079,0.474435,0.023047,0.151109,1.889671,0.422941,0.497099,2.964741,1.287516,0.589242,0.881936,0.394247,2.558183,1.513346,2.054662,1.058907,2.064708,low
0.669487,0.623998,0.333777,0.896747,0.493377,1.559217,0.531493,0.757413,2.856372,1.933434,0.900079,1.425765,1.203709,1.785290,2.675348,2.559482,2.979365,2.905813,very_high
0.994139,0.273640,0.579313,0.210707,1.390638,1.204204,0.189661,1.636220,1.689794,2.811569,1.880190,0.644643,1.706889,1.323628,2.230352,1.493454,2.432621,2.761066,high
0.661839,0.487834,0.889001,0.227534,0.818896,0.909921,0.693714,1.825717,2.096708,0.323593,2.055518,0.852632,1.676643,1.867525,1.454646,1.786719,1.850776,2.915262,medium
0.557783,0.082272,0.569305,0.279601,1.752628,0.712357,0.073140,0.404430,2.404291,0.297780,0.372610,0.186235,0.357220,2.543775,2.743517,2.901536,1.382660,1.777591,low
0.730651,0.459584,0.631722,0.127408,0.595960,1.894175,0.372828,1.085900,2.162995,2.558418,2.831414,0.911911,0.103308,2.561526,2.601424,2.522961,1.160355,2.755566,very_high
0.465206,0.306463,0.518748,0.639263,0.023743,1.205818,1.493541,1.273798,2.099486,1.519190,1.023132,0.962112,2.394703,1.461078,2.507299,2.145446,2.344381,2.525749,high
0.060142,0.822381,0.051166,0.075143,0.601311,1.158145,0.650938,1.043655,2.875662,2.299215,2.139506,2.885499,2.177767,1.349931,2.695265,1.443995,1.633911,1.679946,very_high
0.562297,0.056979,0.232859,0.134202,1.156150,0.463802,1.336474,0.868153,1.789368,0.646266,1.572623,1.769186,0.245457,2.841121,2.239299,1.850611,1.458957,1.213187,low
0.957625,0.418607,0.492002,0.644757,0.751877,0.093396,1.433768,0.383951,1.908908,2.486588,0.668274,2.362147,0.382247,1.087998,2.002875,2.548123,1.759909,2.365242,medium
0.175303,0.458431,0.310235,0.339661,1.069746,1.890377,1.162371,0.976439,2.547806,2.771540,2.538685,0.136132,2.677751,2.469477,1.747870,2.641086,2.185846,1.272905,very_high
0.690005,0.725006,0.181764,0.707948,1.753196,0.627471,1.917395,0.802430,2.009673,1.906449,2.454714,0.319610,2.307387,1.092843,1.447528,1.489212,2.343410,1.587552,medium
0.200934,0.574288,0.504133,0.557425,1.824970,0.885178,0.042880,1.591127,2.198798,0.317637,1.188216,2.443611,2.988481,2.675800,2.114823,2.324120,2.290340,2.000729,very_high
0.535828,0.667212,0.322810,0.256021,0.531948,0.229280,1.477305,1.527209,0.702506,2.685884,1.765823,1.870649,0.761962,2.810830,2.778985,1.190006,2.726531,2.359765,very_high
0.096676,0.777049,0.258108,0.650828,0.924281,1.673849,1.917573,0.267997,1.113801,2.377463,0.773477,0.572946,1.463409,1.594838,2.187964,1.046425,1.437515,2.852455,low
0.450371,0.862203,0.463985,0.116274,1.098288,0.055264,1.724543,0.177038,0.441904,2.252633,2.069555,1.214386,0.709379,1.147871,2.839214,2.097348,2.273492,2.186480,medium
0.756163,0.313875,0.133284,0.536410,1.898225,1.667982,0.335785,1.816308,1.517296,0.110185,0.927080,1.616017,1.868400,1.961369,1.713835,1.448760,1.202229,2.342826,low
0.347572,0.538023,0.927746,0.437148,1.997235,0.280570,0.653641,1.071017,1.367182,2.396888,2.532236,2.530829,0.346243,1.596926,2.390276,1.157824,2.095869,1.620028,high
0.664912,0.840108,0.867702,0.267874,0.470814,1.773128,0.344904,1.715602,2.991488,0.413853,0.652155,0.181236,0.381730,1.834272,2.297331,2.459657,2.167917,2.374585,medium
0.795450,0.989451,0.707621,0.604005,1.453960,1.459545,1.202617,0.116302,1.833626,0.667159,0.044410,1.790167,0.215664,2.329971,2.340868,1.995949,1.432475,1.875580,low
0.927178,0.889519,0.106214,0.871334,0.756062,0.329341,1.424376,1.053031,2.359334,1.731405,0.805524,2.151108,2.080758,1.419652,2.290084,2.592554,1.783386,2.713862,very_high
0.234642,0.371467,0.775877,0.998905,0.016216,1.131636,0.634148,1.078853,1.002044,0.794942,0.573157,2.933676,1.482218,1.713903,1.443309,2.327888,2.654386,1.784901,medium
0.399316,0.195167,0.807957,0.607763,0.018505,0.625313,1.079013,1.721404,2.494636,1.984045,1.524859,2.421480,1.853194,2.565125,1.287182,2.459610,1.296818,1.936544,high
0.152416,0.489393,0.767765,0.404706,0.921132,0.356466,1.381841,0.195220,1.845255,1.824211,0.611110,0.828682,2.637903,2.287524,2.957257,1.614721,1.869012,1.865176,high
0.992484,0.741641,0.113966,0.225207,0.976670,1.718364,0.842680,0.480891,2.090977,0.324449,2.289570,2.128738,2.220985,1.652551,1.090590,1.526552,2.865466,2.622246,high
0.927001,0.492569,0.643908,0.257096,0.045139,0.807046,1.708031,0.813077,0.883292,1.968044,0.724112,2.289834,1.385169,2.328603,1.935473,2.201750,2.008218,2.907398,high
0.539957,0.483181,0.834325,0.479455,1.373855,0.797087,1.543100,1.731683,1.645915,2.771865,2.120905,2.189206,2.953068,2.530626,1.850161,1.400164,2.450267,1.654553,very_high
0.842033,0.838230,0.577353,0.367278,0.588007,0.339773,0.129331,1.877767,1.902111,0.483330,1.735413,2.460432,1.368768,2.184971,1.720038,2.630824,2.653732,1.950056,high
0.520958,0.361404,0.646407,0.913815,1.119786,0.766131,1.242251,1.985449,1.767284,1.791186,2.958750,2.711190,0.337352,1.478994,2.563968,2.045840,1.407549,2.411853,very_high
0.623586,0.859795,0.458363,0.368295,0.601838,1.743234,0.470651,1.918387,2.745581,1.025596,2.999703,0.295290,2.977964,1.000491,2.490701,1.453980,1.436434,2.790763,very_high
0.089124,0.406805,0.528707,0.373445,0.334269,0.726257,1.115037,0.011884,2.694818,1.378835,2.608578,0.314292,0.068462,2.605698,2.810450,2.250336,2.517183,1.987401,high
0.755270,0.328233,0.034377,0.383535,0.814347,1.903207,1.913777,0.095417,2.912952,0.861001,2.279950,2.389200,1.649651,2.645267,1.790975,2.890071,2.506613,1.217787,very_high
0.127713,0.453990,0.638963,0.836620,0.464547,1.892618,1.758124,0.295214,2.002284,1.062392,1.159369,0.757117,0.927286,2.395209,2.128359,1.164189,1.120367,1.737343,low
0.826068,0.762447,0.081447,0.650788,1.069602,0.289797,0.809033,0.697724,2.915742,0.086735,2.259830,0.175624,1.510656,1.153162,2.784614,1.218690,1.644996,2.100724,low
0.782028,0.126002,0.435015,0.614169,0.397657,0.354623,0.583028,1.659836,2.497434,2.944655,2.870027,1.203688,1.676139,2.170445,2.987696,2.687678,1.797065,1.835049,very_high
0.708745,0.196419,0.292655,0.334143,1.016812,1.725348,0.468811,1.785312,0.812496,1.874400,0.070133,2.459631,0.720288,2.642041,2.938589,1.219188,2.658081,1.373111,medium
0.036160,0.951445,0.545428,0.817904,0.314757,0.785522,1.065030,0.373669,1.282307,1.502117,1.613744,0.379695,1.670576,1.779337,2.435688,1.078751,1.843725,1.073979,low
0.303128,0.175492,0.133416,0.038364,1.341949,0.008748,0.228497,1.239328,0.715177,1.151146,0.653995,2.015526,2.268183,1.396001,1.286455,1.695861,2.851858,2.374817,low
0.263113,0.567727,0.691643,0.870797,1.507875,0.547744,1.098550,1.834724,0.012591,1.618124,1.673629,0.010848,0.799530,2.175255,1.046372,1.933412,2.993216,2.985474,medium
0.360136,0.579314,0.795012,0.512750,0.220788,1.195258,0.002667,0.927463,0.564146,1.140318,1.399341,0.329212,1.150278,2.652613,2.650437,2.138889,2.561452,2.838413,medium
0.087643,0.489624,0.163354,0.398250,0.935605,1.598532,0.647699,0.207087,0.012182,1.079724,1.727306,1.052551,0.804728,1.097740,2.681884,2.014600,2.332773,2.366542,low
0.936958,0.644745,0.104313,0.497167,0.141743,0.266777,0.439869,0.915627,2.159515,1.391840,1.652887,0.250807,2.461679,2.193902,2.492722,2.826369,1.783794,2.683060,high
0.553802,0.229827,0.145515,0.667416,1.196365,0.221083,1.942438,0.751590,1.276603,0.827949,2.880321,2.537705,2.174947,2.286348,1.559847,2.537336,1.134079,1.511455,high
0.305524,0.552662,0.877128,0.012765,0.528809,1.844185,1.454485,1.155316,0.937724,0.540150,1.656558,2.592212,2.613589,2.204734,2.279636,2.967621,2.146278,2.244869,very_high
0.396982,0.372173,0.528189,0.871552,1.055249,1.502297,0.699307,0.877317,2.285163,1.669818,2.538696,2.266712,0.510150,2.300067,1.632497,1.952911,1.723410,1.121208,high
0.447203,0.661667,0.467261,0.446740,1.034922,1.179559,0.185690,0.034692,2.497460,2.528296,0.959461,0.727439,0.220739,2.262751,1.901296,1.168659,1.701796,2.414368,low
0.600594,0.141224,0.106712,0.342967,1.848709,1.538374,1.033601,1.987995,2.925899,0.458485,1.314302,1.569741,0.358151,1.260808,1.764870,2.911061,2.375419,2.939745,very_high
0.515679,0.570877,0.649556,0.138246,1.098166,0.857709,0.426896,1.087080,1.926041,0.098203,1.411240,0.552566,0.483055,1.469874,2.827280,1.008226,1.927279,2.721595,low
0.919392,0.185270,0.868000,0.439465,1.165997,1.516911,1.072859,0.947262,1.384587,0.740435,0.836184,0.843835,1.599248,2.237988,1.468315,2.552192,2.504188,2.068882,medium
0.496963,0.278643,0.828186,0.496323,0.803306,0.743606,1.670725,1.909235,0.915793,2.939162,1.139371,1.548016,2.912736,1.035386,2.155222,1.062564,1.796346,2.577480,high
0.992158,0.218710,0.626055,0.403647,1.898159,0.488189,1.231585,0.311721,0.666955,2.486274,1.795539,2.205041,1.071706,2.269489,1.721963,2.522428,1.301727,2.887798,high
0.851425,0.182838,0.075279,0.678660,1.554372,1.458027,1.267577,0.378475,0.638778,1.787598,1.740563,0.283963,2.875525,2.330773,2.326142,2.875878,1.922695,1.432035,high
0.208511,0.825711,0.112397,0.420897,0.570811,0.839345,1.082061,1.616029,1.227568,2.787747,1.909306,0.890090,0.114602,1.478350,2.129126,1.778521,2.902025,2.586517,high
0.930595,0.285708,0.049309,0.961418,1.688419,1.962754,1.854531,0.521662,2.975359,1.335837,1.055454,2.779864,2.780617,2.196266,2.847955,1.481930,2.603049,1.539694,very_high
0.116366,0.927124,0.257479,0.599278,0.864793,0.698970,1.863805,1.598454,0.002561,2.949842,0.947494,1.287370,0.543458,2.068180,1.203224,1.452558,1.411499,2.753895,low
0.817450,0.969927,0.135661,0.807478,1.657334,1.843455,1.025446,0.543067,0.591618,0.888906,1.834854,2.816609,2.737425,1.521383,1.441282,1.983435,1.782601,1.196709,medium
0.380623,0.571260,0.260048,0.109356,1.645776,1.865925,0.611519,0.066375,0.565179,0.720917,0.398585,2.974202,0.168682,1.925948,2.532696,1.341774,2.855584,1.356437,low
0.877974,0.143001,0.385058,0.397291,0.377740,0.483706,0.919174,1.034029,2.151358,1.914145,0.759095,1.579979,2.844658,2.819249,1.737574,2.345847,1.247398,2.441233,high
0.868057,0.374548,0.942983,0.336848,1.402282,1.596442,0.373116,0.393373,1.057454,1.134462,0.126383,0.864132,0.602395,1.853206,1.331568,1.736705,1.507900,1.349555,low
0.805925,0.797732,0.610376,0.569482,0.581286,0.866149,1.272689,1.515693,1.371782,1.879097,0.217833,2.372330,0.908142,2.259688,2.006643,1.646219,1.524445,1.316109,low
0.790030,0.367391,0.834974,0.861114,0.594985,1.835049,1.000185,1.282399,0.445872,0.914987,0.730150,0.477932,1.472827,1.070702,2.304284,1.922571,2.141866,2.110934,low
0.304679,0.087017,0.710352,0.078338,0.592696,0.900249,0.206601,1.847205,1.214991,1.853755,0.058588,0.756141,1.142163,1.155600,1.089653,2.085175,1.821467,2.669974,low
0.080919,0.556785,0.112503,0.072575,1.451136,1.488607,0.395296,1.565977,0.309599,0.827239,0.736232,2.354640,2.002584,1.162616,1.583244,1.283861,1.159741,1.536935,low
0.402980,0.845121,0.735920,0.850318,0.459652,0.933935,0.959264,0.361552,1.599130,0.152916,1.964929,1.300938,2.924423,2.556482,2.618845,2.415527,2.258363,2.682276,very_high
0.173525,0.795926,0.275099,0.212850,0.001812,0.455602,1.775178,1.600316,0.293815,2.736408,0.183321,0.604614,1.819279,1.700514,2.040489,2.765894,1.198156,2.615907,medium
0.694951,0.175123,0.639108,0.668753,1.430474,0.398700,1.132781,1.283474,2.371525,2.649616,1.310210,1.953377,2.164456,1.455223,1.070758,1.555974,2.212830,2.158211,high
0.346100,0.672765,0.340962,0.542878,0.342369,0.850862,1.363070,1.337903,1.699805,2.912394,2.739326,2.198286,0.264016,2.494649,1.563902,1.360782,2.014017,2.293126,high
0.975610,0.220504,0.997672,0.832894,0.208965,1.510989,0.678057,1.664526,2.171904,2.149582,2.373854,0.375214,1.883437,1.339920,2.278281,2.521011,1.987337,1.080882,high
0.640972,0.218208,0.263551,0.125089,0.475032,1.210143,1.142823,1.147648,1.255549,2.048164,0.916313,0.830941,1.361549,1.492985,1.398719,1.367083,1.134992,1.734271,low
0.822481,0.874072,0.279130,0.129783,0.759801,1.377259,0.894760,0.932007,1.144474,1.677009,2.774416,0.663830,2.657347,1.861863,2.654783,1.082510,2.278441,1.526790,high
0.132525,0.249669,0.930672,0.556818,0.951813,0.564653,1.318260,1.273282,0.294627,0.377827,0.988939,1.139564,1.164633,1.662876,2.353152,2.238486,1.862641,1.300008,low
0.862014,0.263247,0.024644,0.946379,0.089140,0.962871,0.101151,0.595915,1.571567,0.567706,0.217546,2.290335,2.038362,2.170784,1.942758,1.479503,1.822212,1.779319,low
0.922757,0.000653,0.696689,0.414998,1.941147,0.088791,0.986600,0.365194,1.543506,0.868409,2.982168,2.141124,0.684461,1.675681,2.831248,1.343621,2.192903,1.709808,medium
0.487062,0.870669,0.725326,0.326942,1.432126,1.635065,0.591985,1.233176,1.404306,2.670469,2.610068,1.987572,0.778118,1.785903,1.783602,2.963205,2.212496,2.457783,very_high
0.606253,0.792595,0.836379,0.606689,0.646388,1.979784,0.652370,0.467697,2.221555,0.518909,1.397798,0.018857,1.128367,2.725773,1.470147,1.583730,1.030067,2.196193,low
0.764810,0.627329,0.974439,0.930449,0.637395,0.813758,1.921835,0.159830,2.497513,2.768620,1.999130,0.426430,0.912191,2.769063,2.322806,2.806887,1.250452,2.826200,very_high
0.174839,0.750266,0.975602,0.836928,0.897085,0.021927,0.365390,0.001108,2.252369,1.568357,2.013684,0.669893,0.761637,2.655422,2.146590,1.356438,1.473036,1.290815,low
0.502566,0.152049,0.065277,0.995484,1.252490,0.339585,0.622491,1.216639,0.431597,2.146709,0.583447,0.815868,0.149006,2.729662,1.670496,2.637954,2.355955,1.119497,low
0.398663,0.458324,0.821839,0.022569,0.292746,1.305054,1.019785,0.724298,1.866179,0.330733,0.600146,0.439280,2.510239,2.139457,1.687329,2.004038,2.153482,2.069216,low
0.146374,0.351219,0.646310,0.112858,0.377860,1.224159,1.726054,1.504622,0.240969,0.807101,1.408742,1.230947,0.192905,2.292466,1.796421,1.157190,2.515258,1.002054,low
0.367534,0.093777,0.647342,0.609468,1.718869,1.575729,0.833340,0.750353,2.083867,2.875556,2.734719,0.225542,2.662097,2.114346,1.582277,2.467211,2.481216,2.575438,very_high
0.068172,0.486130,0.128350,0.820576,0.512510,0.507768,1.487731,0.972007,1.145517,0.798450,0.029981,2.250067,0.376396,2.571176,2.420483,2.784147,2.706366,2.011946,medium
0.025812,0.920740,0.650187,0.285244,0.760390,1.527264,1.712748,0.814170,0.397497,0.889565,2.347517,2.363162,0.195785,2.102001,2.302717,1.326034,1.753630,1.976131,medium
0.135166,0.040059,0.982483,0.239211,1.742544,1.375968,0.620033,1.301150,2.586153,0.592792,0.172580,1.722800,1.689014,1.222154,1.881555,2.451180,1.690128,1.724992,medium
0.963115,0.291461,0.911819,0.786976,1.326296,0.645629,0.785500,0.712278,1.842025,0.387221,1.434666,0.269115,1.507325,2.619160,1.795709,1.890105,2.662031,1.749948,medium
0.549530,0.207541,0.439131,0.056382,0.683424,1.090976,0.713112,1.927535,1.064175,0.699773,1.913618,2.670250,1.473704,2.521170,1.730103,2.507741,1.475203,1.862267,high
0.965822,0.238147,0.039948,0.369383,1.367399,0.294548,1.665712,1.872294,0.092182,1.926981,2.060278,2.896907,1.723513,2.640601,1.566937,2.427856,1.922345,1.032065,high
0.432498,0.908435,0.362293,0.505809,0.039366,0.905129,0.088694,1.696056,1.611931,1.366103,0.175438,0.607091,0.861170,1.380859,1.171393,1.053200,1.388651,1.167092,low
0.311816,0.468069,0.826390,0.560349,1.471285,1.762395,0.616842,1.840601,2.769678,1.661268,1.255811,2.113919,1.988848,1.543234,1.536409,1.357442,2.827681,2.010096,very_high
0.506142,0.466299,0.701499,0.728615,0.974032,0.842383,1.358817,0.898279,1.789139,0.367094,1.751512,2.525816,1.507207,1.591503,1.642403,1.942054,1.815606,1.300245,medium
0.439512,0.760576,0.459344,0.354846,1.626364,1.679133,1.130887,1.072861,2.914952,2.406349,0.198137,1.619531,1.004230,2.016161,2.095368,2.867188,1.424974,2.557525,very_high
0.105665,0.154492,0.055102,0.612684,1.909275,1.180507,0.872579,1.484185,0.409353,2.352284,0.405284,0.969969,2.479502,1.267754,2.547577,1.684147,2.384027,1.548970,medium
0.640826,0.487265,0.426895,0.585375,1.851577,0.383753,1.079896,1.392292,1.704915,0.064770,1.990947,1.435676,2.183163,1.770764,1.791404,2.257747,1.489289,1.195799,medium
0.216038,0.429985,0.469025,0.547616,1.818530,1.162212,0.395169,1.781357,2.394375,1.150545,1.564915,1.536806,1.180831,1.364316,2.889514,1.024167,2.887007,1.470420,high
0.619588,0.596911,0.928556,0.640483,1.024340,1.011967,0.861433,1.432662,1.576622,0.206312,0.485486,1.201911,2.542853,1.529525,2.654700,2.422254,1.735234,1.714196,medium
0.650201,0.999558,0.641086,0.259449,0.720284,0.797283,1.003406,1.995769,0.273199,2.376317,1.605718,2.789527,2.760775,2.412775,2.969604,2.206137,2.329281,1.070633,very_high
0.152025,0.769449,0.311653,0.084649,0.930071,0.239261,1.802378,0.697012,1.748658,2.211809,2.738077,2.231649,1.610599,2.709622,2.752406,2.430789,1.690490,1.283351,very_high
0.061350,0.397866,0.525318,0.119272,1.379792,0.833417,0.521670,1.665995,1.835214,2.705964,0.046763,0.723905,0.644857,1.045812,2.233452,2.809321,2.614491,1.647694,medium
0.780762,0.827553,0.066055,0.224582,1.767996,0.145525,1.735657,1.395270,2.186128,0.709212,1.927901,1.756672,2.747376,2.131794,2.196959,1.292998,2.793845,1.620961,very_high
0.459800,0.170708,0.972568,0.500198,0.413973,0.197538,1.288483,1.382773,2.283635,1.368888,0.220951,2.066067,0.568439,1.072120,1.259052,1.523179,2.575837,2.600773,low
0.058164,0.030464,0.360060,0.840443,1.836386,0.831833,0.040682,0.651671,2.312318,0.553464,0.019348,0.420469,0.145270,1.170498,2.444798,2.991562,2.696998,2.686511,low
0.994866,0.204448,0.477867,0.701293,1.630360,0.610763,1.449263,1.571204,1.990333,1.113705,0.451963,1.075277,0.982461,2.410168,2.200414,1.312568,1.203762,1.386837,low
0.057781,0.340412,0.355284,0.789041,1.957712,1.851089,0.071104,1.800752,0.647434,1.566730,1.268720,2.716645,2.180899,2.471216,2.013864,2.441254,2.848129,1.247880,very_high
0.695035,0.510581,0.682512,0.350976,1.760504,0.751412,1.994762,0.437097,1.212707,0.159992,2.407032,1.701519,2.769822,2.627961,2.386574,2.450152,2.248601,2.268325,very_high
0.983679,0.615129,0.662232,0.404654,0.559875,1.515716,1.745273,1.250994,2.328390,2.144611,0.845356,0.650993,1.911857,1.948483,1.888096,2.365987,2.738435,2.609247,very_high
0.239180,0.910606,0.715322,0.393682,0.211912,1.060495,0.594687,0.784270,2.860281,1.629880,1.877020,0.368354,2.855516,2.719615,2.047719,1.454881,2.368874,2.927446,very_high
0.142249,0.509854,0.268143,0.191873,0.224482,1.408171,0.514822,1.979096,0.236841,2.486877,1.233470,1.554681,0.277113,1.333677,1.796705,1.430268,1.403695,1.013593,low
0.121385,0.501276,0.315668,0.061217,0.582447,0.520232,0.762882,0.957666,1.606610,0.815342,0.702995,1.643057,0.182261,1.499433,2.434742,2.332682,2.219110,1.827356,low
0.303275,0.050243,0.125251,0.590916,1.228367,1.883810,0.712334,0.456640,0.937567,2.709963,1.542741,1.003243,1.812576,1.269004,2.753222,1.372500,1.181892,2.467976,medium
0.101046,0.034912,0.655510,0.989217,1.608641,1.060177,0.744676,0.763715,0.676182,2.996083,2.392393,1.891248,2.898349,2.595075,2.681690,2.323127,2.391446,2.657119,very_high
0.692161,0.551160,0.039797,0.166830,1.798501,1.662648,0.636553,1.307677,1.517432,2.757895,2.497477,0.206054,1.508164,1.457350,2.572051,1.985057,1.818002,1.124572,high
0.062292,0.438179,0.597682,0.046685,1.247507,0.730091,1.242267,0.152179,1.818268,2.333677,2.539559,0.435419,0.154546,1.311022,1.027575,1.773258,1.303466,2.361229,low
0.509422,0.839180,0.869696,0.779532,0.011263,0.200423,0.328527,1.207204,0.029317,2.437106,1.015673,1.638821,0.663656,2.246221,2.823761,1.600465,2.958460,1.577877,medium
0.996697,0.160680,0.890832,0.252586,0.372634,1.347423,1.691963,1.862450,2.340620,1.721233,2.380368,0.185447,0.734379,1.154164,1.549751,2.895154,2.802169,1.149194,high
0.813970,0.024972,0.449038,0.829644,0.199452,0.015519,1.624805,1.700726,2.459646,0.570462,0.636535,2.642726,1.013571,1.089801,2.775948,2.016187,2.787087,1.978205,high
0.615219,0.449039,0.459304,0.703937,0.726649,0.950586,0.952966,0.135347,2.896532,2.031122,2.215275,0.426439,0.130810,1.213435,1.393936,2.122504,2.577641,1.316307,low
0.306254,0.237479,0.076969,0.945674,1.002702,0.385604,1.705460,1.986780,0.541931,2.138259,2.845153,2.021760,2.714678,1.000482,1.879292,2.898512,2.383962,2.474015,very_high
0.623896,0.049614,0.670765,0.408927,0.086794,1.254751,0.494290,1.397454,1.783658,2.956155,0.041232,1.173610,1.546692,2.393980,2.498798,2.307755,2.310159,2.482524,very_high
0.527041,0.724598,0.821259,0.661970,0.696956,1.958840,0.035131,0.324562,1.279876,1.623904,1.321092,1.199363,2.012792,2.124471,2.280558,2.915706,1.212188,2.684136,high
0.426083,0.111593,0.244655,0.464855,0.358359,0.928806,1.238416,0.024832,1.004484,0.814107,1.943313,2.294669,0.201519,1.419750,1.831844,1.212733,2.801132,1.755137,low
0.130710,0.608320,0.421301,0.630589,1.294140,1.634997,0.915819,0.342565,1.696900,2.051018,2.105327,1.498386,0.162346,1.466010,2.357248,2.693279,2.762257,1.026620,high
0.886604,0.281050,0.838839,0.449599,0.928545,1.015568,1.134329,1.676352,2.347149,2.938127,0.528263,2.176966,1.759403,2.621937,2.097899,1.670829,2.495705,1.519472,very_high
0.449785,0.173496,0.877120,0.188632,0.990635,0.991680,1.798679,0.043279,0.069158,0.531642,2.916550,1.515574,2.661888,2.003640,1.551473,2.620975,2.854630,1.935623,high
0.194623,0.379752,0.243180,0.507897,0.855384,1.860847,1.939851,0.466295,2.908200,0.977994,1.845796,1.778716,1.585446,2.397057,2.292659,2.711273,2.106167,2.388023,very_high
0.367759,0.801446,0.550571,0.528584,1.912039,1.779932,1.268906,1.514611,2.429645,1.625643,0.493022,2.282144,2.633458,1.905511,1.408494,1.542976,1.895285,1.764081,high
0.414130,0.392094,0.192493,0.810604,0.429470,1.571601,1.528111,1.172221,2.253461,0.510644,0.061568,1.821926,2.432974,1.475436,2.387977,1.817661,2.935895,2.072097,high
0.827538,0.750770,0.101879,0.735521,1.033329,0.592512,0.167617,1.565471,2.281162,0.066662,2.349793,1.846845,0.227561,2.940806,1.006222,2.452029,1.928262,2.048527,medium
0.733614,0.125486,0.911121,0.663792,1.472035,1.090017,0.321431,1.492301,1.167182,1.010949,0.239114,2.367659,0.605872,2.131295,2.097545,1.198111,2.282649,1.329965,low
0.769305,0.772771,0.820508,0.113387,1.113689,0.447794,1.466410,0.101203,2.254862,2.596112,0.423153,2.847260,1.973132,1.261964,1.802135,2.511067,1.746124,2.246099,high
0.011031,0.236933,0.760035,0.720616,1.858042,0.887833,0.862731,1.785023,1.160311,0.130405,1.724490,1.130148,1.330504,1.812180,1.606208,1.220946,2.272652,1.878503,low
0.416154,0.677393,0.048766,0.500305,0.755937,0.968426,0.891931,0.454064,2.696120,1.286787,1.810517,1.731351,0.872099,1.658675,2.031416,2.828911,2.440198,2.615837,very_high
0.481344,0.565782,0.843729,0.894100,0.927352,1.663280,0.617215,1.106785,0.531667,2.286602,2.060661,0.258819,1.255902,1.428175,2.290623,1.552679,2.249311,2.381222,medium
0.019192,0.929145,0.438044,0.919871,0.177045,1.792057,1.214713,1.288576,0.877042,2.859548,1.180542,1.076412,1.335599,2.866880,2.930625,2.151199,2.029126,1.222938,high
0.259813,0.387323,0.342395,0.055157,1.217998,0.829240,0.370330,0.337256,1.654013,2.956426,2.321696,1.236148,2.731657,2.761840,2.666129,1.234307,1.600222,1.977517,very_high
0.760290,0.066165,0.546476,0.820642,0.576424,0.035409,1.253833,1.952463,0.957633,1.265908,2.923076,2.505712,0.310375,1.398294,2.434300,1.538986,2.287691,2.404989,high
0.137110,0.019155,0.091353,0.037697,0.320618,1.723548,0.347598,0.976312,1.272712,2.851153,0.813285,1.540177,0.839192,1.704296,1.957934,1.807910,2.816858,1.174023,medium
0.535310,0.826859,0.756647,0.367170,1.089063,0.348557,0.127652,0.115285,1.477268,0.106257,2.109086,2.193199,1.612694,2.524631,1.784288,1.974098,1.013825,2.584994,medium
0.215202,0.524736,0.582435,0.542300,1.064621,1.243764,0.660715,1.874524,2.569060,2.237751,2.785406,0.057022,2.094861,1.417012,1.065059,1.000135,1.267858,1.444009,low
0.012121,0.775244,0.186590,0.148101,0.151743,0.049942,0.462281,1.172536,1.569577,1.928238,2.058860,1.393478,1.891912,2.183130,1.718194,2.777312,1.239546,2.006170,medium
0.241201,0.234426,0.188232,0.746314,1.396431,0.799013,1.777983,1.398386,1.087380,0.748566,2.043328,2.703953,2.824928,2.399588,2.696754,1.015350,2.846411,2.881123,very_high
0.975874,0.345084,0.184249,0.008355,1.247544,1.971921,0.109907,1.050352,0.743208,1.521956,0.671318,0.672942,2.386827,2.307945,1.768049,2.547369,2.325495,2.142668,medium
0.801537,0.030104,0.057002,0.168599,0.378035,0.201387,0.353227,1.669476,1.226028,0.388661,1.605391,0.094567,1.671231,2.412817,1.923170,1.941158,2.903576,1.848109,low
0.959577,0.961492,0.587798,0.580797,0.938870,0.847386,1.097439,0.066267,1.547208,2.614791,1.687569,1.300226,0.644048,2.413399,1.543669,2.047760,2.165627,1.013590,medium
0.487854,0.667868,0.840348,0.714388,1.440646,0.614300,0.962134,0.536757,2.238345,1.073694,2.100389,2.113295,1.352623,2.929612,1.548266,1.416531,1.923466,1.266827,medium
0.109736,0.933205,0.017498,0.916643,1.058871,1.810176,0.091704,0.939297,0.363146,1.878133,2.990464,1.363391,2.080147,1.692998,1.123744,2.214737,2.584686,2.157328,high
0.547959,0.265496,0.049005,0.705497,0.790978,1.738680,0.014505,0.153207,0.664828,0.476329,0.100931,1.379935,2.513887,2.757181,2.227608,2.074464,1.321885,1.987650,low
0.454377,0.611464,0.572770,0.671779,0.644677,0.475398,1.976136,1.411813,1.138962,0.618495,0.195698,2.009415,2.879209,1.043614,1.896139,1.328473,1.762676,1.727658,low
0.844357,0.678500,0.819496,0.394341,1.220788,0.162376,1.317669,0.787327,1.081195,2.975869,0.233850,0.763166,1.816358,1.576406,2.211922,1.476238,1.932548,2.846432,medium
0.098083,0.317550,0.326739,0.001284,1.878217,1.254277,0.730812,0.545336,1.175244,2.259259,2.228937,2.255669,1.580758,1.097312,2.093774,1.133807,1.596917,1.664965,medium
0.488241,0.848109,0.349614,0.120159,1.343490,0.672737,0.940864,0.006758,2.380564,2.885916,0.409061,0.459341,0.053076,2.302408,2.597689,1.132567,1.742571,2.074302,low
0.150049,0.947161,0.596346,0.534555,0.149492,1.344169,0.533100,1.439661,0.972463,0.887553,1.867356,1.187252,0.216297,1.201581,2.502024,1.027552,1.156210,2.137427,low
0.324676,0.884855,0.274213,0.675130,0.921370,0.064240,0.689748,1.667619,1.505695,0.493689,0.974007,1.968024,0.468315,2.691414,2.542908,1.440949,1.395967,2.054937,low
0.737357,0.739067,0.026608,0.417448,1.781648,0.266798,1.298089,0.790081,1.871721,1.509205,1.371960,2.485107,0.164280,2.293183,1.998478,2.359322,1.670993,1.955171,high
0.476018,0.277465,0.735229,0.730679,0.188925,1.372744,1.765624,1.128436,0.696536,1.484005,0.646989,2.374593,1.202590,1.057631,1.707763,1.632431,2.591781,1.674127,low
0.375888,0.281616,0.625650,0.521862,1.977751,0.424741,0.368260,0.455373,2.156086,0.524840,2.598320,2.165057,1.010636,2.429555,2.866873,1.685469,1.364995,2.817527,high
0.394476,0.963360,0.580756,0.074176,1.898139,1.715175,1.680723,1.244395,1.641334,2.199659,1.758451,1.077289,1.912062,2.724070,1.108540,1.263811,1.693281,1.901607,high
0.459447,0.010284,0.741684,0.192016,0.156549,0.117182,0.243113,0.024275,1.340343,1.085333,2.833690,0.366913,1.606995,2.322242,1.305243,2.150941,1.129841,2.056898,low
0.785017,0.716050,0.675231,0.839998,1.866827,0.430964,0.429984,0.977288,2.429352,0.559096,1.723789,0.650503,1.787912,1.061048,1.839198,1.684287,2.114209,2.312956,medium
0.892085,0.706246,0.205882,0.724913,0.726265,1.997120,0.074351,1.288411,0.730486,0.995950,0.371724,2.594501,1.415932,2.715839,2.227915,2.352634,2.222502,1.135312,medium
0.955335,0.622690,0.352481,0.894762,1.689418,0.866152,0.281624,1.836384,2.649528,1.690976,0.512611,2.571994,0.833211,2.464928,1.016401,2.482919,2.731033,2.562576,very_high
0.786903,0.990109,0.126110,0.117557,0.836767,1.405931,1.834606,0.762672,1.683146,2.179413,2.967222,2.854683,2.858476,1.756903,2.438646,2.169386,2.638232,2.025015,very_high
0.315407,0.311879,0.129857,0.990223,0.881710,0.365326,0.918877,1.530380,1.827525,1.445673,2.176696,0.227966,0.259227,1.657261,2.117453,1.552139,1.570756,2.314354,low
0.688135,0.339972,0.676196,0.209407,1.268486,1.219737,0.155332,1.195374,2.625177,1.576785,0.147836,1.610427,2.816673,1.959640,1.969406,2.017216,1.273907,2.544024,high
0.437603,0.078939,0.858600,0.011780,1.548955,1.452212,1.919454,1.854024,2.452748,0.416838,2.111343,1.946049,0.933714,2.734204,1.846990,1.503862,1.312166,2.748199,very_high
0.254671,0.442798,0.962733,0.997423,0.067578,0.628953,1.757985,0.796755,1.804686,2.744073,1.236519,2.131972,1.537984,1.504119,2.038974,2.805826,2.937928,1.784441,very_high
0.840872,0.261049,0.628347,0.281074,1.186312,1.657794,1.509365,0.638191,2.259563,2.786173,0.921625,1.931590,0.326527,1.201928,1.323571,2.532772,2.346452,2.622860,high
0.038426,0.343387,0.184101,0.668019,0.373466,1.206835,1.866946,1.774284,1.299958,2.050280,0.462182,2.310034,0.212793,2.729273,1.217423,1.986012,1.085142,1.517674,low
0.901762,0.834572,0.105650,0.176682,0.691899,0.778246,0.440259,0.098489,1.642133,0.052894,2.519712,1.078415,1.288636,1.052580,1.579275,2.930914,1.273559,2.320671,low
0.461477,0.935485,0.812851,0.580229,0.695937,1.115285,1.672739,0.272771,0.186210,1.611223,0.191524,0.538298,2.225092,2.821994,2.419010,2.093511,1.971600,1.205415,low
0.637201,0.185733,0.578756,0.904035,0.938121,1.153522,1.379982,0.164809,0.269574,1.887657,0.869506,0.613750,0.808094,1.611490,2.176576,1.657071,1.415658,1.040061,low
0.659354,0.372509,0.618285,0.320181,0.668273,0.331071,1.739518,1.686220,2.488276,2.983963,0.919149,0.035936,1.687044,2.016445,1.960246,1.190935,2.607318,1.191526,medium
0.895118,0.928631,0.781462,0.670254,0.214722,0.805465,1.593823,0.021215,0.179015,2.988201,0.482716,1.050966,0.835951,1.264591,2.143042,2.087491,2.146434,1.638765,low
0.636670,0.061808,0.703277,0.187904,0.291257,0.686861,0.692990,1.723314,0.508197,2.572834,1.524555,0.275232,1.165839,2.804510,2.118516,2.720833,2.225264,1.062189,medium
0.613934,0.092361,0.834458,0.624795,0.066876,0.801805,1.548797,0.902536,2.387498,0.191493,0.035108,0.964466,2.719339,2.499672,1.614084,2.733437,1.925651,2.260983,medium
0.066652,0.162791,0.056214,0.336450,0.940498,1.522221,0.524913,0.008051,0.003438,2.859829,0.902927,1.884630,2.567519,2.848311,1.194912,2.209134,1.512126,1.633089,medium
0.518408,0.595213,0.747521,0.211208,1.908895,0.965077,0.657184,0.803290,0.847213,1.837984,2.800888,2.683434,1.548053,2.366458,2.793565,1.786877,2.178807,2.472752,very_high
0.150169,0.150472,0.850853,0.313182,0.231350,1.880632,0.215811,0.373602,1.752116,2.402660,0.931589,2.518816,0.714317,1.369388,2.199823,2.300593,2.433940,1.091830,medium
0.737434,0.968076,0.286135,0.178841,1.892529,0.587353,1.870153,1.248801,1.786350,1.221579,1.081378,0.758023,0.579552,1.616534,2.395496,2.524281,1.741896,1.433403,medium
0.512222,0.446715,0.640447,0.901916,1.466723,0.831407,0.582007,1.358718,2.331459,0.959008,1.419495,0.402249,2.862262,1.973697,1.927994,1.823250,2.009887,1.816007,high
0.680228,0.501518,0.314162,0.397187,1.274998,1.573914,1.041245,0.975055,1.517779,1.389732,1.685080,0.579217,0.608150,2.214516,2.512961,1.952508,2.679368,1.765303,high
0.041673,0.246659,0.957971,0.245279,1.290556,1.092049,0.782666,0.081039,1.528206,0.440624,2.426126,2.912960,2.424505,2.852919,2.168995,2.361233,1.297364,1.261997,high
0.084792,0.470960,0.033424,0.448408,1.653455,1.094056,1.919856,1.312258,2.175932,1.071198,0.570964,1.648423,1.106911,1.767903,1.107602,2.753305,2.090449,2.988274,high
0.716323,0.661914,0.579793,0.320536,0.213840,0.106680,0.670098,1.684078,1.495873,2.572852,2.615239,0.547507,2.956980,2.406144,2.780194,2.582021,1.696825,1.568879,very_high
0.072084,0.751177,0.166504,0.744419,1.009509,0.797199,1.557092,1.440649,1.825473,0.113851,2.272648,2.522238,1.104467,2.922018,1.611072,1.044783,2.405590,2.442064,high
0.071257,0.753868,0.712220,0.971220,1.394182,0.541467,1.710832,1.659916,2.693322,0.452634,2.167951,1.185574,1.054550,1.304748,1.275782,1.248745,1.037620,1.440053,low
0.012108,0.577891,0.175890,0.438034,1.173641,1.998670,0.871213,0.401019,1.204353,0.375348,0.260414,2.697666,1.912391,2.725419,1.176082,2.705556,2.340947,2.755702,high
0.956501,0.904360,0.235383,0.861033,1.665558,0.616710,0.756344,1.777776,1.155375,1.209227,0.064922,0.782031,2.884550,1.841412,2.440881,2.667646,1.205795,1.775517,medium
0.737508,0.817408,0.494371,0.565863,0.144543,1.768993,1.495492,0.644387,0.010647,2.990961,1.782038,1.179665,2.928629,2.464844,2.407937,1.777614,1.129536,2.801805,very_high
0.353251,0.757048,0.914835,0.157236,1.381402,1.352467,1.825792,0.026810,1.840279,0.520074,2.589402,1.514843,2.121618,1.587077,2.400324,2.168556,2.449247,1.683670,high
0.296536,0.055606,0.211714,0.690623,1.068055,0.681833,1.509863,1.686783,0.089316,0.436448,1.753324,2.677846,2.263819,1.667968,2.831506,2.811690,2.280684,1.017288,high
0.349703,0.006878,0.144240,0.513434,0.758322,1.087069,0.454253,1.883643,1.512445,2.745167,0.639705,2.606272,1.690207,1.054266,1.697886,2.823117,2.789872,2.034041,very_high
0.774654,0.212447,0.758977,0.650607,0.680550,1.681072,1.776615,1.311116,2.412701,2.646152,0.271560,1.723065,2.267327,2.942808,2.122266,2.566186,2.039310,2.049576,very_high
0.661371,0.663524,0.500620,0.889687,1.241665,1.766737,0.775163,0.462873,1.649763,0.096721,2.098789,0.665327,2.579339,2.626905,2.238991,1.419178,2.060049,1.239668,medium
0.185196,0.411197,0.911785,0.440435,1.781991,0.320788,1.152459,0.503489,0.808908,2.255118,2.165311,1.210071,1.458286,1.187836,2.958964,2.460566,2.414036,1.469927,high
0.174109,0.402406,0.146615,0.901178,0.992352,0.679146,1.662871,0.933186,2.358505,1.966397,0.517595,2.926899,1.859587,2.999018,1.624692,1.202197,1.646795,2.566991,very_high
0.098396,0.884587,0.645928,0.750669,1.649446,0.670446,0.376790,1.795662,0.809151,2.303222,0.084571,1.823320,1.611950,2.210049,2.912662,2.787877,1.073825,1.073512,medium
0.660303,0.895563,0.232879,0.488605,0.804313,0.084090,1.569020,0.299195,2.199095,1.483507,1.224851,2.343293,1.687412,2.707457,1.297469,1.298298,1.460092,1.979053,medium
0.764373,0.909175,0.156760,0.603222,0.204789,1.196476,1.192326,1.651947,1.830775,2.974138,1.748156,1.349594,2.670144,1.133322,2.528003,2.324697,1.476027,2.060816,very_high
0.265046,0.313878,0.683429,0.325581,0.123011,1.709640,1.786683,0.582606,0.509989,0.131541,2.118007,1.596022,1.066850,1.778902,2.265772,2.220487,1.671318,2.377424,medium
0.020945,0.691056,0.593685,0.983597,0.102669,0.763149,0.343941,1.617172,2.715402,0.703115,2.429835,1.286862,0.624552,2.339302,2.633792,2.553799,2.886925,1.074913,high
0.082172,0.271633,0.754827,0.667351,0.760300,1.480072,0.841364,1.840542,0.601931,1.189638,1.831612,2.108763,1.368840,1.212867,1.057371,2.103155,2.609686,2.171293,medium
0.967860,0.190610,0.309463,0.043847,0.674476,1.255401,1.665686,0.854988,2.968761,1.349334,0.332642,2.554413,0.624256,1.977806,1.156262,1.119133,2.871912,1.006196,low
0.295445,0.184632,0.447972,0.326622,1.435874,0.751297,0.038463,0.730101,0.021931,2.764102,2.047745,1.522091,1.495201,1.885356,1.139392,2.411693,2.997219,1.530357,medium
0.769223,0.342108,0.405472,0.623314,1.485643,0.282120,0.224403,1.604443,0.790450,1.680013,2.952530,1.442602,2.710524,1.432080,2.185919,1.766309,1.867558,1.999369,high
0.624664,0.429958,0.984089,0.056333,0.101708,1.418648,1.981130,1.058966,0.599581,0.135333,2.716754,1.020859,1.852301,1.600540,2.205872,1.640570,1.454147,2.822563,medium
0.381940,0.830949,0.292249,0.023884,0.442247,1.709130,0.560788,1.368898,0.041980,1.223589,2.615007,0.531290,2.566299,2.934237,2.812210,2.983347,2.120008,1.253180,very_high
0.205687,0.119891,0.294817,0.450024,0.548524,1.371709,1.951086,1.245658,2.197104,1.249471,0.906510,2.817743,0.498573,1.577297,1.935207,2.180800,2.762269,1.338578,high
0.121386,0.734926,0.354548,0.332690,1.095224,0.035757,0.365063,0.305778,2.080277,2.896473,2.252365,0.948239,2.702621,1.426852,1.136098,2.421438,1.931464,2.338500,high
0.615013,0.531455,0.564594,0.438299,0.289030,0.432466,0.722189,1.689581,2.377053,1.797591,2.553310,2.402074,1.805361,2.072418,1.419059,2.052652,2.010799,1.749723,high
0.774634,0.287945,0.252323,0.262693,0.267882,0.138960,1.505739,0.391550,0.770096,1.906953,2.034979,2.146041,0.095279,2.341916,1.016146,2.539945,1.268878,2.246843,low
0.643904,0.492820,0.915290,0.164718,1.887578,1.140772,1.315557,1.864564,1.333006,2.139759,0.751685,2.372753,1.899357,2.450186,2.553429,2.504145,1.840911,2.994908,very_high
0.530302,0.299942,0.265686,0.689143,1.608406,1.512955,1.162245,0.501143,1.977341,2.310118,2.861502,2.810304,2.854191,2.508494,2.631199,2.314292,1.773990,2.973743,very_high
0.041951,0.596082,0.895816,0.514571,0.361310,0.221158,1.059798,1.467762,1.319306,1.905153,1.352458,1.870112,0.237501,1.073665,2.995881,2.995486,1.703377,1.707427,medium
0.968489,0.433844,0.103475,0.200154,0.813136,1.676676,1.686881,0.569311,2.091977,0.711583,0.389417,2.693851,1.747368,1.787521,1.824389,1.919587,2.774597,2.007851,high
0.798714,0.164406,0.656563,0.319589,0.711244,1.111018,0.469897,0.635571,1.901920,2.622138,0.329334,0.503092,2.746436,2.547916,1.038597,2.412385,1.118603,2.809380,medium
0.292822,0.116583,0.906986,0.591808,1.582008,1.379938,0.884942,0.620004,0.343943,2.196359,1.942557,1.880138,0.029086,2.809704,1.469460,2.595556,2.944294,1.184335,high
0.979970,0.546696,0.168749,0.072229,1.020426,1.942804,0.310905,1.495785,2.343129,2.225611,1.313129,2.316827,1.892739,2.204400,2.175538,1.752069,1.016494,1.904608,high
0.601882,0.902413,0.968327,0.147453,0.255699,0.167362,1.191883,1.113630,2.162029,2.989670,0.283452,0.814923,1.424707,1.104614,2.923886,1.914350,2.891188,1.755155,high
0.582423,0.343958,0.452883,0.073246,1.477984,1.802448,0.501089,1.765905,1.967503,2.407580,2.221094,2.222261,1.040968,1.793292,1.207157,2.938335,2.096095,1.589766,very_high
0.748073,0.733000,0.945715,0.812317,0.793776,0.252205,0.667684,0.614745,0.465281,2.487454,2.397976,2.335430,1.882609,1.148454,1.243146,1.064582,2.404890,2.988408,medium
0.811770,0.658661,0.676820,0.752409,0.525848,0.785918,0.942501,1.383985,0.803989,2.854217,2.176247,2.493564,0.158106,2.497076,2.403518,1.670591,1.374266,2.467099,high
0.656479,0.931555,0.301587,0.753313,0.750997,1.702877,0.053541,1.505897,1.179531,0.453402,0.606783,0.938649,2.259189,1.127011,2.334414,1.972426,2.308423,1.777494,low
0.128096,0.820981,0.188303,0.716325,0.995513,1.812508,0.183876,0.302964,0.839789,1.493182,2.069326,2.044820,0.013438,1.371462,1.501013,1.002930,2.763915,2.658044,low
0.338268,0.566605,0.303735,0.669385,0.686231,1.012743,1.371858,0.801179,0.683431,1.741701,0.032168,0.912760,0.920807,1.833917,2.626290,2.798254,1.278960,1.979332,low
0.928084,0.657030,0.093017,0.476992,0.483812,1.188209,0.857940,0.965635,2.416073,0.987827,0.915336,2.217121,1.511876,1.925297,1.257558,1.572489,1.254163,2.745649,medium
0.224616,0.898386,0.143868,0.642278,0.797004,1.416295,1.729580,0.711375,1.914697,2.518210,1.196465,1.388921,1.131067,1.812963,2.851484,1.515410,1.607956,1.532760,high
0.372167,0.399519,0.104660,0.038362,0.038346,1.665517,1.389344,0.644225,1.696416,2.287259,2.505741,1.792633,0.922428,1.926793,1.402064,2.640652,1.323452,1.447200,medium
0.432077,0.326795,0.422944,0.621464,1.544996,0.243022,0.016202,1.372840,0.677858,2.162649,1.171183,1.247520,2.492505,2.426478,1.162705,1.555966,1.221292,1.494573,low
0.439405,0.010811,0.795578,0.777878,0.341890,1.620139,1.233425,0.431733,2.754230,2.991448,0.033808,0.485949,2.804498,1.738538,1.679044,2.315245,2.356638,2.076961,high
0.612940,0.826551,0.141384,0.500358,0.087809,0.962552,0.187450,1.418781,0.573549,0.778144,1.057039,0.534089,2.621138,2.095501,1.375683,2.643006,1.427653,1.582627,low
0.943076,0.800981,0.130320,0.357513,1.307397,0.901247,1.561866,1.870088,2.384853,2.206372,1.496772,0.232707,1.567294,1.606739,2.053882,2.584954,2.334030,1.294239,high
0.240693,0.104455,0.643429,0.277427,1.547872,0.847800,1.983015,1.130395,2.900018,1.654213,2.847014,1.854218,2.652493,1.707255,2.373693,2.563901,2.723858,2.989256,very_high
0.121501,0.576857,0.197183,0.642802,1.627658,1.018423,1.062398,1.222868,2.181278,0.938968,2.823103,2.545915,2.762585,2.227598,1.981843,1.177275,2.304050,2.800866,very_high
0.197470,0.463982,0.097610,0.692801,0.987018,1.890101,1.365559,0.137865,2.978576,0.481761,0.542622,0.062510,1.227715,1.980989,2.321215,1.159694,1.238734,2.270025,low
0.886925,0.118709,0.166849,0.870968,0.410736,1.096408,0.474628,1.728954,1.953153,2.687652,0.555440,0.198719,0.850338,2.446073,1.729841,1.613540,2.147155,2.783086,medium
0.645811,0.980568,0.923731,0.342334,1.474455,1.906355,0.875195,0.570896,0.652381,1.786366,0.490144,1.372401,0.294796,2.121077,1.055845,1.071896,1.787257,2.870925,low
0.285907,0.214696,0.821471,0.769772,1.399426,0.360580,1.712191,1.230102,0.611458,2.474802,2.366766,2.213162,1.437276,2.607148,2.948128,2.000859,1.686742,2.352217,very_high
0.815947,0.067234,0.354065,0.561356,0.492541,1.448272,0.334846,1.958224,0.973693,1.636035,0.018066,0.473123,2.838891,1.886816,2.638827,1.789564,1.637063,2.037360,medium
0.861370,0.594847,0.655821,0.882836,1.806816,1.624479,0.531071,1.191005,0.021390,0.659931,0.381532,0.814954,1.682723,1.982067,1.146838,2.114052,2.858864,2.764004,medium
0.846514,0.738867,0.537276,0.527812,0.208743,1.358258,0.890867,1.449419,2.045095,1.012646,1.613879,0.696019,2.002686,2.339943,1.898353,1.597577,2.485015,2.135594,high
0.918927,0.032443,0.677124,0.517630,1.965376,1.213845,1.424498,0.890639,0.806003,1.144617,0.742686,1.197154,0.338651,1.442488,2.270038,1.971508,1.267698,1.253601,low
0.252241,0.658718,0.682671,0.577877,1.720496,1.129626,0.751768,0.120732,2.445550,2.918804,0.277069,0.674996,0.430559,1.771859,1.381189,1.669490,1.952011,1.733712,low
0.755042,0.532292,0.628734,0.749315,1.375797,1.721861,1.855465,1.595199,1.077518,0.016900,1.079634,1.057796,1.393420,2.249682,2.155977,1.390416,1.636446,1.891842,medium
0.460539,0.103265,0.266101,0.964690,1.877500,1.643293,0.188914,0.069998,1.439869,2.956998,0.822623,2.185628,2.853794,1.057753,2.067297,2.298733,2.955877,2.870738,very_high
0.841999,0.172524,0.039006,0.073563,1.444622,0.244577,0.741608,1.401316,2.897067,2.941385,1.533313,1.833028,1.082354,1.873943,1.416530,2.346872,2.956058,2.318371,very_high
0.728491,0.567974,0.455567,0.053435,0.380914,1.697175,1.417908,0.045843,0.726516,2.988452,2.937701,0.243545,2.632452,2.197700,1.282421,2.658463,1.639069,2.750555,very_high
0.776447,0.296358,0.890974,0.937550,0.884312,0.828137,0.451974,1.724610,2.163762,1.429765,0.372914,1.913237,0.360866,2.934751,2.517925,2.749504,1.704226,2.515183,very_high
0.656162,0.938316,0.569497,0.529876,0.143006,0.507394,1.312826,0.315272,2.265353,2.891427,1.118180,1.431232,1.851052,2.754033,1.645173,2.408924,2.198828,1.619722,high
0.177429,0.818740,0.832391,0.614903,0.779315,1.739537,0.328434,1.028543,0.662994,1.186798,2.795955,2.803697,1.801839,1.561484,1.488081,2.374996,1.958614,2.437418,high
0.545027,0.983567,0.991624,0.482424,1.483206,0.864050,0.111961,1.194301,1.502991,0.078883,2.630619,0.867913,2.579624,2.014420,2.475757,1.113351,1.426202,1.390599,medium
0.984670,0.259671,0.163616,0.093657,0.772887,1.616729,0.242031,0.915091,1.050606,0.673042,1.182813,2.178499,0.009950,1.112829,2.472137,1.219558,2.320824,1.816292,low
0.937388,0.969724,0.691778,0.768089,0.660588,0.526807,1.859970,0.681527,2.315719,2.835889,2.096860,2.192582,0.569795,1.481509,1.552803,2.625125,1.668257,2.612184,very_high
0.043174,0.431234,0.674294,0.747225,1.190711,0.007859,1.103502,0.935629,1.867450,0.041294,0.263571,0.664502,0.659063,2.549712,2.745137,1.465903,2.307433,2.223858,low
0.164815,0.347519,0.979955,0.311703,1.744409,0.990918,1.592692,0.622832,1.427949,1.637982,2.137623,2.709671,2.849898,1.246628,2.376500,1.711130,1.767363,2.650825,very_high
0.131729,0.050350,0.985601,0.306239,0.095166,0.200457,0.665309,0.876245,2.338090,0.226805,2.918573,1.473550,0.461081,1.515381,1.691528,1.290595,2.400420,1.509407,low
0.725980,0.052765,0.686679,0.837841,0.770941,1.508752,1.185317,0.717826,0.705467,0.859190,1.612464,2.036650,0.110887,2.888085,1.854979,1.390304,2.335599,2.499498,medium
0.817785,0.692011,0.243615,0.072357,0.316481,0.552150,0.989904,1.132410,2.260866,0.264279,1.495471,0.437567,1.603384,2.647712,2.453419,2.550834,2.017626,1.404649,medium
0.213511,0.457929,0.798556,0.881105,1.390709,0.887291,1.891476,0.475848,2.596123,2.578586,0.561956,0.773412,1.585675,2.563655,1.423168,1.523719,2.409480,2.090608,high
0.505853,0.226522,0.107029,0.256662,0.211449,0.174067,1.495149,1.977313,2.635865,1.773212,1.901365,1.758321,2.532141,2.729115,1.937522,1.898070,1.921931,1.867069,very_high
0.840703,0.613970,0.780699,0.592985,1.329616,0.573318,1.461085,1.001740,2.351021,2.706319,1.771312,0.957082,2.846579,2.499211,2.307117,1.303343,1.232277,2.112952,very_high
0.732802,0.252858,0.910196,0.935994,0.572362,1.562980,0.092707,0.388324,1.224043,2.065060,1.955799,1.499079,1.615636,1.241172,2.078997,2.355860,1.364213,1.271067,low
0.542237,0.577632,0.382833,0.678123,0.397834,0.303176,1.099339,0.954133,2.945424,2.913087,0.078250,1.122016,2.789983,2.033123,2.216657,2.456539,1.491986,1.722456,high
0.590348,0.359209,0.630635,0.414430,1.872705,1.294319,0.933983,1.732830,1.138781,1.529633,1.646170,1.921661,2.175477,1.888488,2.092425,1.723385,1.126458,2.333808,high
0.508361,0.823552,0.430143,0.689534,0.037049,1.834852,1.855685,0.043614,1.915876,1.916132,1.784805,1.461436,0.793677,1.622303,1.398455,2.569493,2.422762,2.117062,high
0.297548,0.820696,0.437765,0.343980,0.875555,1.359674,0.514684,1.359108,0.483223,1.728926,0.622590,0.013830,2.785262,2.668081,1.820411,1.479813,1.734780,2.097940,low
0.565022,0.477350,0.310371,0.277258,0.043254,1.622043,0.539667,1.095936,2.941347,1.452781,0.624999,1.949043,2.002330,1.928278,2.063971,2.383808,1.187047,2.021660,high
0.688885,0.350819,0.762130,0.996683,0.967186,0.217943,0.822692,0.339116,2.111958,2.537878,0.828655,1.266365,1.242288,1.120595,2.560125,2.459929,2.639916,2.887770,high
0.873323,0.362560,0.936177,0.750790,1.002095,0.501464,0.486739,1.634953,2.260133,1.933575,2.135165,1.025095,2.040726,1.549931,2.307808,2.937315,2.367309,2.869139,very_high
0.636291,0.805715,0.940751,0.644720,0.643325,1.789078,0.258368,0.737769,0.197330,2.403937,1.818798,0.282440,1.203938,1.457242,1.853182,1.464643,1.904448,1.720290,low
0.761122,0.328179,0.174781,0.355290,0.264324,1.430211,1.714830,0.587604,2.290253,2.359092,2.537288,0.661109,0.342551,2.774958,2.948800,1.187421,1.494851,1.703790,high
0.160072,0.209059,0.874744,0.049161,0.752775,1.279108,1.116553,1.656250,2.324170,0.573135,0.886976,0.671317,2.156936,2.294876,1.215591,1.526071,1.303492,2.109797,low
0.461557,0.084688,0.737431,0.031057,1.344526,1.327533,1.722725,1.277050,2.015318,1.950491,2.736204,2.806108,2.472263,2.120753,1.413610,1.245724,1.916748,1.191213,very_high
0.009332,0.466693,0.252837,0.554181,1.564792,0.828401,1.662270,1.796518,0.875729,0.598944,2.231118,1.297539,2.186419,2.013298,1.682625,1.339389,2.770491,1.606013,medium
0.246679,0.482132,0.067285,0.762033,1.061501,0.089113,0.564085,1.259767,1.469070,1.749961,1.185035,0.126198,0.687344,2.300226,1.457144,1.668229,1.376791,1.461735,low
0.726462,0.840909,0.267997,0.537379,1.179669,1.568883,1.095475,1.481635,0.331303,2.032304,0.285786,0.416450,2.869905,2.509751,2.250884,1.827981,2.137318,1.446779,medium
0.991810,0.221239,0.912208,0.840785,0.401233,1.357426,0.166435,1.672892,1.414761,2.991705,0.770951,0.237098,0.075764,2.108769,1.079101,2.807448,2.923372,2.277011,medium
0.099178,0.380991,0.633179,0.033427,0.574661,0.945609,1.830504,0.109479,0.731472,0.091626,2.870305,1.766608,0.998056,2.876571,1.354874,1.391232,2.274233,1.768701,low
0.401494,0.808406,0.721055,0.366752,0.323791,1.799519,0.808525,1.552098,1.047291,0.273727,0.931090,0.559864,0.780277,2.953668,1.586694,2.943518,1.879929,1.342329,low
0.800071,0.823624,0.257152,0.237070,0.498591,0.672319,0.787352,1.227413,0.487801,0.231080,0.989703,1.495673,0.144379,2.990685,2.366692,2.620306,2.432746,2.775144,medium
0.204036,0.384611,0.719388,0.447273,0.449774,0.588643,0.605511,0.139016,0.690163,1.195084,0.568767,1.110186,1.217189,2.338782,2.751730,2.762943,2.649156,2.748297,medium
0.555085,0.459124,0.028122,0.072376,1.038898,1.745593,0.921327,1.017156,0.229706,2.464765,2.420552,2.411629,1.869345,2.865241,2.596984,2.858888,2.181033,2.724926,very_high
0.733071,0.303286,0.375321,0.954132,1.125378,1.593975,0.503519,0.164916,2.759704,2.532169,0.826933,0.961469,2.647659,1.808959,1.364162,2.506482,2.743665,1.781490,very_high
0.615985,0.932555,0.626753,0.223255,1.889895,1.029960,0.749705,1.471894,1.591232,2.210939,0.990775,1.374796,2.969069,2.719185,2.130812,2.577560,2.029184,1.113965,very_high
0.188025,0.118644,0.146097,0.922308,0.391141,0.261469,1.599894,1.093003,1.190226,2.690635,1.243044,2.163857,2.424269,2.818349,1.060045,1.875637,2.660058,1.213484,high
0.355385,0.933749,0.823004,0.425893,1.283351,0.430143,1.668511,1.907147,1.605088,0.968580,1.301185,1.300054,1.406042,2.808281,1.621074,2.020900,2.904038,1.552096,high
0.783792,0.683866,0.235031,0.985524,1.634519,1.312456,0.608365,0.366271,1.884880,0.264464,1.234022,2.379647,2.171113,2.661693,2.611968,2.864971,2.002487,1.439940,very_high
0.554227,0.531572,0.652281,0.554058,1.120483,0.770082,0.938029,1.212067,2.765636,0.174459,1.511231,1.985053,2.530871,1.813198,1.913331,1.756512,2.210003,2.747971,very_high
0.005230,0.032659,0.405197,0.930833,0.510007,1.672946,1.747640,0.423164,0.536079,2.556398,2.443539,1.231587,1.395922,1.317815,1.299883,1.083894,2.218935,2.972716,medium
0.760991,0.475596,0.596044,0.005349,0.525100,1.899910,0.105347,1.228130,0.886657,2.191309,2.457855,1.511946,2.355163,1.667913,1.877107,2.525509,2.562870,2.633347,very_high
0.035311,0.407748,0.107451,0.748239,0.078506,1.611274,1.778290,1.445299,2.927368,2.095846,2.394939,2.901610,1.447957,2.534577,1.396066,2.146315,2.645932,2.459698,very_high
0.745734,0.161219,0.016913,0.903051,0.610888,0.755091,0.438369,1.444609,1.113579,1.019029,0.303375,1.984834,1.159488,1.465771,1.786383,2.629752,1.054459,2.177248,low
0.202481,0.656410,0.909564,0.139721,1.489207,1.577373,1.357078,1.630148,0.067685,1.139716,2.399036,2.714986,1.578273,1.956544,1.975667,1.151103,2.466719,2.539817,high
0.958073,0.971151,0.269630,0.096126,0.095036,0.702883,1.165103,1.707100,0.442930,2.874341,0.360755,0.536276,2.027564,2.130799,1.699116,2.242464,2.567630,2.894067,high
0.367941,0.562189,0.819677,0.424573,0.438591,0.334200,1.105881,0.154543,0.079016,0.191414,0.374171,1.449708,2.180646,2.207717,2.873938,1.495412,2.400859,2.202689,low
0.326932,0.714753,0.999350,0.933679,1.412465,0.066786,1.718720,0.686534,2.969769,2.321195,2.843588,2.725985,1.070209,2.871451,2.125061,2.806537,2.427391,1.309226,very_high
0.148888,0.068450,0.211431,0.542387,1.565303,0.771433,0.203144,1.374245,0.836613,0.928900,2.458194,0.967836,1.713961,2.322986,2.685785,1.219820,1.082806,1.327717,low
0.305604,0.417667,0.265171,0.527456,0.910637,1.807119,0.694056,0.997173,2.770628,0.117164,1.657231,2.902993,2.729613,2.572598,2.521457,2.686139,1.884077,2.167726,very_high
0.876651,0.116358,0.662860,0.141126,1.396149,0.477973,1.076505,0.381352,2.987659,2.227710,2.624911,0.291232,2.928939,2.163757,2.322333,1.177109,2.636359,1.666937,very_high
0.996334,0.612796,0.965449,0.000790,0.775904,0.413026,1.622578,1.105419,1.799524,0.992736,2.968094,2.708014,0.681744,2.667161,1.993777,1.050195,2.868014,2.820495,very_high
0.368310,0.938482,0.915814,0.810140,0.319826,1.939642,0.432886,0.814871,0.099589,2.166443,1.831926,1.335636,0.578493,1.527327,1.004348,1.470119,1.458936,2.223285,low
0.448611,0.661778,0.502876,0.087575,0.796299,0.050008,1.605860,0.780077,0.244775,2.122963,1.838695,0.221232,2.030057,1.419755,2.226935,1.666089,2.158390,2.352985,medium
0.722071,0.076803,0.795110,0.633850,1.159936,1.571564,0.799277,1.619507,1.444767,1.604361,2.263281,2.638565,1.244052,2.852640,1.711915,2.253058,2.608660,1.011641,very_high
0.886196,0.354666,0.135746,0.914616,1.896107,0.642740,0.377828,0.815197,1.218516,2.332119,0.696417,0.755821,0.072667,2.386962,1.235524,1.263449,2.504815,1.997697,low
0.593044,0.550663,0.977438,0.208652,0.137502,0.074976,1.517973,0.052909,1.818532,1.743115,0.501375,0.066750,1.040586,2.343051,1.889253,1.874660,2.237780,1.862329,low
0.391526,0.403208,0.964353,0.665273,1.014788,1.835605,0.181798,0.116127,1.316543,0.859911,2.278742,0.407421,2.420234,1.934590,2.471107,1.408527,1.037382,2.411744,medium
0.412622,0.833644,0.163729,0.078699,0.657840,0.279285,1.029535,1.712488,2.802231,2.202346,1.034714,1.977344,2.392281,1.753395,2.923356,2.710607,2.447772,1.765277,very_high
0.695618,0.814671,0.299423,0.603755,1.016623,1.103559,0.127752,1.921202,1.604219,1.767419,0.405211,2.933434,1.484055,2.111382,1.748210,1.089933,2.546485,2.953150,high
0.003218,0.611831,0.100155,0.163932,0.047951,0.548108,0.712836,1.376819,2.081178,0.038182,0.944633,0.334386,1.417734,1.241133,2.085447,1.711875,2.445699,2.340406,low
0.619589,0.373458,0.271718,0.735954,0.626051,0.130386,1.202154,0.728737,2.689456,2.704933,1.075911,1.385844,1.738522,1.909425,2.702489,2.262748,2.531618,2.319837,very_high
0.355493,0.255336,0.815956,0.301231,1.639736,0.099845,1.112231,1.877201,0.440616,1.636931,2.895683,0.541910,0.658190,1.910735,1.667999,2.826176,1.861830,2.838682,high
0.794197,0.105874,0.378316,0.463391,1.107883,0.231113,0.809311,1.325606,0.689204,2.605882,2.093879,2.235110,1.578131,2.076673,1.284514,2.735987,2.987504,2.990410,very_high
0.092991,0.354898,0.088397,0.599431,0.901165,0.142734,0.858096,1.688667,0.321956,2.648211,1.592569,0.354177,0.033139,2.269371,1.563764,2.790384,2.541574,1.395641,low
0.588202,0.413173,0.342226,0.171273,0.571050,1.521116,0.453539,1.531705,0.418915,1.334900,2.906619,0.719525,1.426679,2.914637,2.798246,1.125707,2.157360,2.621066,high
0.480973,0.675823,0.981383,0.741638,0.596085,0.971132,0.911765,0.758279,1.537752,1.522980,2.709419,0.589218,1.008153,2.304338,1.318786,2.681847,2.868383,1.324639,high
0.642326,0.658160,0.629684,0.302640,0.766203,0.685784,1.906510,0.957404,0.963538,1.247263,1.536003,1.657559,2.024609,2.767450,1.658442,2.559825,2.816397,1.914087,very_high
0.064854,0.070108,0.416161,0.662372,1.671141,0.836738,1.700906,0.372264,1.269519,1.348310,2.717039,2.619552,1.915061,2.112608,1.929281,2.804863,2.629134,1.200371,very_high
0.579984,0.395259,0.166539,0.158283,1.934426,1.857893,0.290466,0.584028,2.947469,2.685441,1.212914,1.533271,1.142508,2.253856,2.694226,1.623153,2.127390,2.246742,very_high
0.561485,0.181779,0.986177,0.688118,0.877311,1.821504,0.059562,1.556251,0.470113,2.364432,0.691262,0.174730,0.021819,1.139674,2.875427,2.823530,2.054202,1.937036,low
0.560660,0.156813,0.820849,0.128188,0.786706,1.431353,1.867049,1.787957,1.622436,0.379577,0.698035,1.690167,0.756821,1.266527,1.851621,1.805282,1.657416,2.257398,low
0.603488,0.827302,0.281477,0.425356,1.693102,1.769365,1.053499,1.448921,0.296613,1.830923,1.986947,2.392563,1.900044,2.159341,2.863908,2.268199,1.501756,2.355922,very_high
0.676468,0.041915,0.070069,0.247206,0.853811,0.639296,1.075676,0.930347,0.955489,2.987720,1.503211,0.396469,0.217120,1.791426,1.322918,1.848358,2.024719,2.238865,low
0.804989,0.419183,0.056626,0.748375,1.104036,0.762219,1.561436,0.173019,1.582578,1.786652,1.976853,0.218134,0.322927,2.597621,1.313705,1.855297,2.155564,1.588058,low
0.269821,0.168204,0.120378,0.262035,0.461883,1.227424,0.629378,0.113896,2.839895,2.357615,2.058228,0.563423,1.941105,2.086356,2.898502,2.093274,1.489053,2.673918,very_high
0.825049,0.879330,0.580769,0.881717,1.487005,1.247252,0.963815,0.748651,1.173685,2.307184,0.066969,2.238259,2.267302,2.764582,2.019360,1.711853,2.845202,2.103372,very_high
0.498256,0.557041,0.928763,0.891820,1.063977,0.963400,1.937326,0.927643,0.194720,1.050953,0.162119,1.775041,0.964649,2.944663,1.371816,2.585474,2.114548,1.979702,medium
0.077058,0.231381,0.496743,0.196441,1.618069,0.801316,1.344297,1.218241,1.164484,1.115548,1.598033,1.621784,1.469019,1.295270,1.975981,2.267277,2.053011,2.974128,high